! NoMOPrint PrintBasis #MINIPRINT SMALLPRINT LARGEPRINT
! ALLPOP XYZFILE
#! BP86 3-21G   TightSCF
! ENGRAD
! B3LYP NormalPNO PModel #DecontractAux
#! VerySlowConv 
 %maxcore 5000
 %scf  maxiter   500  end 

%pal
    nprocs 32
end

%basis
    NewGTO O    # New basis for oxygen
        "aug-cc-pVTZ"
    end
    NewGTO C    # New basis for carbon
        "aug-cc-pVTZ"
    end
    NewGTO H    # New basis for hydrogen
        "cc-pVTZ"
    end
end

* xyz 0   1
  C  11.34  10.29  8.91  #1
  H  12.31  10.17  8.31  #2
  H  10.45  10.43  8.34  #3
  C  11.54  11.45  9.91  #4
  H  12.45  11.3  10.48  #5
  H  11.82  12.38  9.32  #6
  C  10.34  11.71  10.85  #7
  H  10.12  10.81  11.36  #8
  H  9.52  12.21  10.3  #9
  C  10.73  12.71  11.92  #10
  H  11.24  13.61  11.44  #11
  H  11.44  12.27  12.63  #12
  O  9.6  13.33  12.68  #13
  H  9.69  13.23  13.65  #14
  O  11.14  9.1  9.69  #15
  H  10.98  8.35  9.11  #16
  O  10.64  7.69  7.45  #17
  H  10.18  6.89  7.8  #18
  H  9.96  8.37  7.5  #19
  O  8.99  16.29  12.48  #20
  H  9.66  16.48  13.13  #21
  H  9.14  15.33  12.46  #22
  O  11.4  8.74  12.45  #23
  H  11.19  7.81  12.75  #24
  H  11.14  8.82  11.51  #25
  O  8.24  9.68  7.33  #26
  H  7.43  10.27  7.31  #27
  H  8.05  9.16  6.52  #28
  O  7.18  12.38  11.14  #29
  H  7  13.18  10.61  #30
  H  7.97  12.56  11.64  #31
  O  12.52  6.36  5.89  #32
  H  12.26  6.95  6.56  #33
  H  12.54  5.41  6.12  #34
  O  8.12  14.02  8.43  #35
  H  7.49  14.71  8.73  #36
  H  8.92  14.52  8.25  #37
  O  5.99  10.46  9.03  #38
  H  6.73  11.01  9.44  #39
  H  5.31  11.08  8.84  #40
  O  10.23  17.27  10.01  #41
  H  10.95  16.68  10.14  #42
  H  9.62  17.11  10.75  #43
  O  7.57  8.26  4.76  #44
  H  6.77  7.74  4.87  #45
  H  8.33  7.7  4.72  #46
  O  5.8  14.75  9.97  #47
  H  4.92  14.66  10.36  #48
  H  6.01  15.59  10.44  #49
  O  10.26  12.13  15.09  #50
  H  10.96  11.43  14.98  #51
  H  9.46  11.64  14.98  #52
  O  11.71  5.8  13.86  #53
  H  10.94  5.22  13.89  #54
  H  12.43  5.17  13.67  #55
  O  5.98  11.83  13.37  #56
  H  6.07  12.76  13.35  #57
  H  6.07  11.62  12.43  #58
  O  10.04  7.33  4.71  #59
  H  10.13  6.39  4.55  #60
  H  10.24  7.39  5.66  #61
  O  11.02  16.46  14.22  #62
  H  11.76  15.86  14.11  #63
  H  11.32  17.25  13.66  #64
  O  10.33  5.38  8.77  #65
  H  10.08  4.53  8.39  #66
  H  11.23  5.35  8.96  #67
  O  12.72  16.22  10.86  #68
  H  13.37  15.57  10.57  #69
  H  12.62  15.81  11.77  #70
  O  9.79  12.01  6.91  #71
  H  9.17  12.63  7.28  #72
  H  9.47  11.09  7.07  #73
  O  6.06  11.79  6.42  #74
  H  6.46  11.38  5.61  #75
  H  6.65  12.33  6.94  #76
  O  3.91  12.95  11.15  #77
  H  4.87  13.08  11.34  #78
  H  3.41  13.16  11.92  #79
  O  8.32  19.05  11.97  #80
  H  7.91  18.25  12.16  #81
  H  7.76  19.48  11.28  #82
  O  14.4  9.06  12.31  #83
  H  14.66  9.18  11.43  #84
  H  13.47  8.78  12.3  #85
  O  12.55  10.1  14.57  #86
  H  12.1  9.59  13.87  #87
  H  12.63  9.57  15.36  #88
  Q  0.6645  13.05$  13.13$  0.72$
  Q  0.6645  11.45$  12.88$  0.79$
  Q  -1.3290  12.23$  13.18$  1.04$
  Q  0.6645  11.24$  2.12$  3.61$
  Q  0.6645  10.39$  2.51$  2.47$
  Q  -1.3290  10.51$  2.19$  3.25$
  Q  0.6645  10.8$  16.19$  7.19$
  Q  0.6645  9.92$  16.49$  8.37$
  Q  -1.3290  10.09$  16.19$  7.6$
  Q  0.6645  15.83$  12.72$  7.5$
  Q  0.6645  15.66$  11.27$  8.01$
  Q  -1.3290  15.44$  11.97$  7.62$
  Q  0.6645  3.97$  17.4$  14.49$
  Q  0.6645  3.41$  18.79$  14.47$
  Q  -1.3290  3.43$  18$  14.23$
  Q  0.6645  13.24$  7.54$  16.46$
  Q  0.6645  12.17$  6.93$  15.42$
  Q  -1.3290  12.48$  7.41$  16.08$
  Q  0.6645  15.75$  6.41$  17.98$
  Q  0.6645  15.34$  6.67$  16.47$
  Q  -1.3290  15.19$  6.59$  17.31$
  Q  0.6645  13.27$  6.26$  2.93$
  Q  0.6645  14.01$  5.86$  1.68$
  Q  -1.3290  13.91$  5.97$  2.5$
  Q  0.6645  13.85$  17.64$  10.55$
  Q  0.6645  14.87$  18.24$  11.34$
  Q  -1.3290  14.58$  17.98$  10.63$
  Q  0.6645  18.52$  12.09$  3.15$
  Q  0.6645  19.22$  10.9$  2.68$
  Q  -1.3290  19.01$  11.67$  2.63$
  Q  0.6645  8.57$  20.09$  7.44$
  Q  0.6645  7.19$  20.14$  6.66$
  Q  -1.3290  7.96$  19.85$  6.92$
  Q  0.6645  15.2$  14.56$  8.87$
  Q  0.6645  15.08$  13.63$  10.1$
  Q  -1.3290  14.89$  14.31$  9.63$
  Q  0.6645  5.31$  19.99$  8.56$
  Q  0.6645  4.05$  19.72$  7.65$
  Q  -1.3290  4.63$  20.18$  8.08$
  Q  0.6645  5.57$  16.88$  19.18$
  Q  0.6645  4.44$  16.47$  18.29$
  Q  -1.3290  5.22$  16.63$  18.45$
  Q  0.6645  14.2$  11.12$  13.16$
  Q  0.6645  15.19$  12.01$  13.95$
  Q  -1.3290  14.74$  11.75$  13.29$
  Q  0.6645  7.78$  8.61$  14.08$
  Q  0.6645  8.19$  8.65$  12.63$
  Q  -1.3290  7.64$  8.67$  13.25$
  Q  0.6645  1.99$  8.2$  12.94$
  Q  0.6645  3.29$  8.52$  12.27$
  Q  -1.3290  2.52$  8.67$  12.48$
  Q  0.6645  8.59$  3.98$  12.58$
  Q  0.6645  7.75$  3.67$  11.46$
  Q  -1.3290  8.42$  3.52$  11.93$
  Q  0.6645  8.78$  18.3$  19.95$
  Q  0.6645  9.21$  18.37$  21.61$
  Q  -1.3290  8.69$  18.33$  20.85$
  Q  0.6645  3.45$  18.03$  9.55$
  Q  0.6645  4.62$  17.45$  8.73$
  Q  -1.3290  3.87$  17.43$  9.12$
  Q  0.6645  17.96$  9.34$  8.82$
  Q  0.6645  18.03$  10.82$  8.86$
  Q  -1.3290  17.72$  10.12$  8.6$
  Q  0.6645  9.06$  4.8$  14.92$
  Q  0.6645  9.74$  3.46$  14.63$
  Q  -1.3290  9.42$  4.22$  14.43$
  Q  0.6645  15.32$  5.57$  3.75$
  Q  0.6645  16.89$  5.36$  3.67$
  Q  -1.3290  16.13$  5.42$  4.08$
  Q  0.6645  14.07$  14.73$  3.16$
  Q  0.6645  14.13$  14.05$  4.49$
  Q  -1.3290  14.41$  14.2$  3.72$
  Q  0.6645  14.94$  3$  9.01$
  Q  0.6645  13.92$  3.61$  8.07$
  Q  -1.3290  14.56$  3.65$  8.57$
  Q  0.6645  7.62$  7.47$  10.33$
  Q  0.6645  8.69$  6.5$  10.12$
  Q  -1.3290  8.21$  6.97$  10.57$
  Q  0.6645  15.74$  7.62$  11.79$
  Q  0.6645  16.74$  7.39$  12.89$
  Q  -1.3290  16.34$  7.19$  12.18$
  Q  0.6645  3.82$  9.53$  3.85$
  Q  0.6645  3.44$  9.32$  2.32$
  Q  -1.3290  3.92$  9.31$  3.01$
  Q  0.6645  6.58$  19.79$  15.37$
  Q  0.6645  7.24$  19.36$  14.15$
  Q  -1.3290  6.92$  19.23$  14.86$
  Q  0.6645  15.95$  7.97$  14.83$
  Q  0.6645  14.51$  8.4$  14.4$
  Q  -1.3290  15.12$  8.11$  14.92$
  Q  0.6645  6.03$  4.68$  11.66$
  Q  0.6645  7.06$  5.95$  11.75$
  Q  -1.3290  6.58$  5.26$  12.04$
  Q  0.6645  9.4$  13.95$  18.5$
  Q  0.6645  8.48$  15.09$  18.8$
  Q  -1.3290  8.76$  14.33$  18.9$
  Q  0.6645  2.61$  8.08$  8.87$
  Q  0.6645  2.11$  8.59$  10.34$
  Q  -1.3290  2.07$  8.42$  9.46$
  Q  0.6645  7.12$  11.74$  20.66$
  Q  0.6645  7.46$  13.02$  19.91$
  Q  -1.3290  6.96$  12.49$  20.32$
  Q  0.6645  7.15$  9.8$  18.41$
  Q  0.6645  5.87$  8.96$  18.18$
  Q  -1.3290  6.58$  9.36$  17.95$
  Q  0.6645  14.21$  12.55$  20.38$
  Q  0.6645  14.5$  11.82$  21.78$
  Q  -1.3290  14.35$  12.49$  21.22$
  Q  0.6645  5.81$  18.67$  10.43$
  Q  0.6645  5.33$  20.13$  10.66$
  Q  -1.3290  5.81$  19.51$  10.34$
  Q  0.6645  1.94$  6.12$  14.06$
  Q  0.6645  3.39$  6.05$  14.55$
  Q  -1.3290  2.7$  5.77$  14.11$
  Q  0.6645  15.1$  7.41$  6.99$
  Q  0.6645  14.67$  8.76$  6.37$
  Q  -1.3290  14.73$  8.18$  6.98$
  Q  0.6645  15.57$  1.21$  10.67$
  Q  0.6645  14.73$  0.4$  9.69$
  Q  -1.3290  15.17$  1.06$  9.93$
  Q  0.6645  17.29$  14.56$  7.34$
  Q  0.6645  16.16$  15.53$  6.92$
  Q  -1.3290  16.51$  14.87$  7.32$
  Q  0.6645  10.72$  20.43$  8.33$
  Q  0.6645  10.32$  19.31$  9.43$
  Q  -1.3290  10.21$  19.96$  8.84$
  Q  0.6645  19.24$  8.46$  11.43$
  Q  0.6645  18.02$  7.56$  10.94$
  Q  -1.3290  18.77$  7.97$  10.9$
  Q  0.6645  11.48$  10.63$  22.2$
  Q  0.6645  10.02$  10.94$  21.68$
  Q  -1.3290  10.9$  10.97$  21.68$
  Q  0.6645  16.07$  3.71$  4.61$
  Q  0.6645  14.99$  2.59$  4.54$
  Q  -1.3290  15.75$  2.96$  4.42$
  Q  0.6645  2.7$  11.51$  17.25$
  Q  0.6645  3.25$  10.6$  16.18$
  Q  -1.3290  2.7$  11.19$  16.51$
  Q  0.6645  14.07$  14.3$  13.28$
  Q  0.6645  14.09$  15.73$  13.53$
  Q  -1.3290  13.71$  15.01$  13.37$
  Q  0.6645  13.97$  16.48$  17.72$
  Q  0.6645  15.08$  17.56$  17.88$
  Q  -1.3290  14.38$  17.23$  17.58$
  Q  0.6645  20.79$  12.02$  12.92$
  Q  0.6645  19.61$  12.99$  13.24$
  Q  -1.3290  20.14$  12.35$  13.39$
  Q  0.6645  12.75$  3.08$  5.64$
  Q  0.6645  11.64$  3.22$  6.78$
  Q  -1.3290  12.35$  3.4$  6.32$
  Q  0.6645  20.4$  7.72$  9.62$
  Q  0.6645  21.95$  8.12$  9.33$
  Q  -1.3290  21.15$  7.81$  9.15$
  Q  0.6645  12.38$  8.95$  1.47$
  Q  0.6645  12.24$  9.74$  2.69$
  Q  -1.3290  12.13$  9.64$  1.87$
  Q  0.6645  16.63$  9.72$  21.06$
  Q  0.6645  15.76$  9.06$  22.15$
  Q  -1.3290  16.41$  9.06$  21.57$
  Q  0.6645  3.2$  15.55$  9.08$
  Q  0.6645  2.84$  14.11$  9.61$
  Q  -1.3290  2.91$  14.76$  9$
  Q  0.6645  7.18$  17.58$  7.75$
  Q  0.6645  6.04$  16.91$  7$
  Q  -1.3290  6.58$  17.02$  7.63$
  Q  0.6645  9.8$  8.26$  2.99$
  Q  0.6645  10.28$  9.14$  1.79$
  Q  -1.3290  9.8$  8.5$  2.15$
  Q  0.6645  13.51$  1.31$  3.79$
  Q  0.6645  13.3$  2.82$  3.09$
  Q  -1.3290  13.28$  2.19$  3.75$
  Q  0.6645  16.11$  5.11$  12.11$
  Q  0.6645  17.11$  4$  12$
  Q  -1.3290  16.41$  4.33$  12.23$
  Q  0.6645  5.84$  3.07$  9.76$
  Q  0.6645  4.77$  3.2$  10.79$
  Q  -1.3290  5.43$  3.45$  10.38$
  Q  0.6645  10.48$  21.88$  13.35$
  Q  0.6645  11.79$  22.18$  14.04$
  Q  -1.3290  11.09$  21.76$  13.94$
  Q  0.6645  4.24$  7.13$  7.19$
  Q  0.6645  2.8$  7.14$  6.71$
  Q  -1.3290  3.51$  7.48$  6.98$
  Q  0.6645  18.4$  7.63$  15.11$
  Q  0.6645  18.48$  8.67$  14$
  Q  -1.3290  18.1$  8.12$  14.49$
  Q  0.6645  9.29$  8.59$  19.26$
  Q  0.6645  8.18$  7.9$  19.82$
  Q  -1.3290  8.65$  8.55$  19.76$
  Q  0.6645  19$  13.04$  8.82$
  Q  0.6645  19.67$  12.85$  10.24$
  Q  -1.3290  19.16$  12.69$  9.59$
  Q  0.6645  19.75$  13.28$  6.9$
  Q  0.6645  18.49$  13.13$  5.91$
  Q  -1.3290  18.93$  13.32$  6.64$
  Q  0.6645  4.5$  13.19$  2.77$
  Q  0.6645  5.71$  13.79$  2.02$
  Q  -1.3290  5.29$  13.55$  2.71$
  Q  0.6645  9.69$  6.9$  0.94$
  Q  0.6645  10.72$  6.59$  -0.05$
  Q  -1.3290  10$  6.48$  0.29$
  Q  0.6645  11.73$  11.31$  4.08$
  Q  0.6645  12.55$  12.3$  3.39$
  Q  -1.3290  12.4$  11.78$  3.99$
  Q  0.6645  8.56$  15.09$  3.57$
  Q  0.6645  8.96$  14.36$  2.35$
  Q  -1.3290  8.74$  15.04$  2.74$
  Q  0.6645  16.98$  13.77$  18.62$
  Q  0.6645  17.96$  14.69$  19.4$
  Q  -1.3290  17.73$  14.14$  18.8$
  Q  0.6645  4.75$  7.39$  3.64$
  Q  0.6645  4.62$  6.66$  5.1$
  Q  -1.3290  4.98$  6.85$  4.29$
  Q  0.6645  1.6$  14.75$  12.32$
  Q  0.6645  1.79$  14.32$  13.82$
  Q  -1.3290  1.8$  14.21$  12.98$
  Q  0.6645  18.08$  14.28$  11.57$
  Q  0.6645  19.08$  15.01$  12.28$
  Q  -1.3290  18.69$  14.32$  12.11$
  Q  0.6645  17.28$  11.98$  20.44$
  Q  0.6645  16.35$  11.61$  19.3$
  Q  -1.3290  16.84$  11.45$  19.98$
  Q  0.6645  12.45$  22.04$  16.99$
  Q  0.6645  11.78$  20.67$  17.24$
  Q  -1.3290  12.42$  21.23$  17.2$
  Q  0.6645  12.64$  15.05$  6.59$
  Q  0.6645  13.39$  16.46$  6.5$
  Q  -1.3290  12.74$  15.9$  6.45$
  Q  0.6645  20.05$  10.33$  12.98$
  Q  0.6645  20.7$  9.06$  13.59$
  Q  -1.3290  20.11$  9.47$  13.13$
  Q  0.6645  7.3$  8.81$  2.37$
  Q  0.6645  5.81$  9.4$  2.23$
  Q  -1.3290  6.63$  9.2$  2$
  Q  0.6645  9.53$  19.2$  15.35$
  Q  0.6645  10.59$  20.36$  15.51$
  Q  -1.3290  9.95$  19.86$  15.78$
  Q  0.6645  15.42$  19.87$  13.13$
  Q  0.6645  15.09$  18.5$  13.6$
  Q  -1.3290  15.07$  19.13$  13.06$
  Q  0.6645  13.43$  8.13$  4.14$
  Q  0.6645  11.94$  7.65$  4.26$
  Q  -1.3290  12.62$  8.08$  3.92$
  Q  0.6645  8.44$  4.58$  3.78$
  Q  0.6645  9.7$  3.83$  3.97$
  Q  -1.3290  9.2$  4.48$  4.1$
  Q  0.6645  6.44$  5.4$  7.39$
  Q  0.6645  6.07$  6.66$  8.21$
  Q  -1.3290  5.95$  6.03$  7.65$
  Q  0.6645  12.3$  16.01$  2.84$
  Q  0.6645  12.35$  14.97$  1.72$
  Q  -1.3290  12.66$  15.61$  2.18$
  Q  0.6645  10.9$  19.17$  18.85$
  Q  0.6645  9.82$  19.82$  17.87$
  Q  -1.3290  10.24$  19.69$  18.62$
  Q  0.6645  14.4$  10.49$  17.73$
  Q  0.6645  15$  9.14$  17.3$
  Q  -1.3290  14.4$  9.68$  17.56$
  Q  0.6645  16.75$  18.25$  4.16$
  Q  0.6645  15.54$  18.36$  3.22$
  Q  -1.3290  16.02$  18$  3.81$
  Q  0.6645  15.15$  10.24$  1.6$
  Q  0.6645  13.7$  10.11$  1.31$
  Q  -1.3290  14.48$  10.23$  1.12$
  Q  0.6645  11.35$  21.21$  6.27$
  Q  0.6645  11.32$  22.59$  7.21$
  Q  -1.3290  11.46$  21.72$  6.95$
  Q  0.6645  16.1$  5.58$  6.34$
  Q  0.6645  15.63$  4.93$  7.69$
  Q  -1.3290  16.1$  5.47$  7.18$
  Q  0.6645  11.09$  20.2$  4.09$
  Q  0.6645  12.45$  19.96$  4.73$
  Q  -1.3290  11.85$  20.42$  4.38$
  Q  0.6645  11.72$  16.8$  18.91$
  Q  0.6645  12.7$  17.88$  18.52$
  Q  -1.3290  12.04$  17.55$  18.93$
  Q  0.6645  17.38$  16.95$  11.17$
  Q  0.6645  16.11$  16.29$  10.65$
  Q  -1.3290  16.88$  16.32$  11.03$
  Q  0.6645  7.94$  1.24$  11.98$
  Q  0.6645  8.44$  -0.15$  11.55$
  Q  -1.3290  7.88$  0.49$  11.59$
  Q  0.6645  4.43$  7.72$  15.47$
  Q  0.6645  4.54$  6.68$  16.69$
  Q  -1.3290  4.28$  6.99$  15.91$
  Q  0.6645  6.99$  15.04$  13.9$
  Q  0.6645  5.6$  15.33$  14.37$
  Q  -1.3290  6.17$  14.98$  13.87$
  Q  0.6645  0.87$  11.19$  8.89$
  Q  0.6645  -0.46$  10.63$  8.56$
  Q  -1.3290  0.07$  11.22$  8.9$
  Q  0.6645  14.32$  3.79$  12.94$
  Q  0.6645  13.11$  2.97$  13.26$
  Q  -1.3290  13.52$  3.68$  13.11$
  Q  0.6645  3.52$  19.5$  11.91$
  Q  0.6645  2.17$  19.49$  11.44$
  Q  -1.3290  2.96$  19.46$  11.33$
  Q  0.6645  18.83$  6.44$  3.54$
  Q  0.6645  19.51$  5.03$  4.09$
  Q  -1.3290  19.03$  5.57$  3.56$
  Q  0.6645  2.16$  17.37$  17.04$
  Q  0.6645  2.05$  15.98$  17.5$
  Q  -1.3290  2.36$  16.73$  17.52$
  Q  0.6645  16.94$  12.46$  4.62$
  Q  0.6645  16.91$  13.86$  4.02$
  Q  -1.3290  17.29$  13.12$  4.23$
  Q  0.6645  15.15$  8.4$  9.08$
  Q  0.6645  15.98$  9.46$  9.44$
  Q  -1.3290  15.54$  8.81$  9.63$
  Q  0.6645  7.07$  1.39$  8.59$
  Q  0.6645  8.01$  2.05$  9.56$
  Q  -1.3290  7.66$  1.92$  8.81$
  Q  0.6645  14.11$  10.66$  4.99$
  Q  0.6645  15.09$  10.84$  6.15$
  Q  -1.3290  14.78$  10.48$  5.44$
  Q  0.6645  6.53$  10.93$  3.39$
  Q  0.6645  6.67$  12.39$  3.57$
  Q  -1.3290  6.86$  11.61$  3.73$
  Q  0.6645  18.79$  4.3$  9.95$
  Q  0.6645  19.15$  4.92$  11.25$
  Q  -1.3290  18.95$  4.28$  10.77$
  Q  0.6645  19.36$  15.79$  9.64$
  Q  0.6645  20.76$  15.69$  9.23$
  Q  -1.3290  19.93$  15.8$  9.08$
  Q  0.6645  6.61$  14.6$  4.67$
  Q  0.6645  7.03$  15.18$  5.96$
  Q  -1.3290  7.12$  14.65$  5.31$
  Q  0.6645  10.88$  22.34$  10.79$
  Q  0.6645  10.38$  21.07$  10.33$
  Q  -1.3290  10.66$  21.57$  10.92$
  Q  0.6645  16.7$  16.26$  3.27$
  Q  0.6645  16.73$  15.38$  1.97$
  Q  -1.3290  17.03$  15.88$  2.58$
  Q  0.6645  11.73$  2.98$  10.7$
  Q  0.6645  10.25$  2.72$  11.22$
  Q  -1.3290  11$  2.55$  10.77$
  Q  0.6645  7.91$  3.56$  7.24$
  Q  0.6645  8.46$  4.52$  6.18$
  Q  -1.3290  8.13$  4.32$  6.94$
  Q  0.6645  7.79$  17.01$  17.55$
  Q  0.6645  9.33$  16.79$  17.65$
  Q  -1.3290  8.53$  16.9$  17.95$
  Q  0.6645  12.78$  14.71$  19.33$
  Q  0.6645  14.15$  15.33$  19.75$
  Q  -1.3290  13.57$  15$  19.2$
  Q  0.6645  5.16$  16.51$  16.48$
  Q  0.6645  3.8$  15.89$  16.01$
  Q  -1.3290  4.55$  16.26$  15.92$
  Q  0.6645  16.31$  10$  3.82$
  Q  0.6645  17.46$  9.54$  2.94$
  Q  -1.3290  16.72$  9.9$  3.09$
  Q  0.6645  8.8$  11.93$  1.2$
  Q  0.6645  9.74$  12.22$  2.39$
  Q  -1.3290  9.37$  12.38$  1.67$
  Q  0.6645  10.2$  4.32$  1.27$
  Q  0.6645  11.03$  3.27$  0.6$
  Q  -1.3290  10.32$  3.59$  0.91$
  Q  0.6645  21.95$  9.41$  6.27$
  Q  0.6645  21.03$  8.63$  7.24$
  Q  -1.3290  21.26$  9.26$  6.73$
  Q  0.6645  19.91$  8.95$  3.04$
  Q  0.6645  19.21$  9.26$  4.37$
  Q  -1.3290  19.35$  8.83$  3.67$
  Q  0.6645  18.24$  3.06$  8.26$
  Q  0.6645  17.56$  4.5$  7.77$
  Q  -1.3290  18.2$  3.94$  8.05$
  Q  0.6645  10.2$  1.53$  6.09$
  Q  0.6645  9.43$  1.86$  7.32$
  Q  -1.3290  10.07$  1.94$  6.79$
  Q  0.6645  15.18$  18.68$  9.05$
  Q  0.6645  14.93$  19.79$  8$
  Q  -1.3290  15.35$  19.14$  8.35$
  Q  0.6645  16.02$  16.56$  14.91$
  Q  0.6645  14.76$  17$  15.77$
  Q  -1.3290  15.31$  16.99$  15.09$
  Q  0.6645  4.31$  17.43$  5.85$
  Q  0.6645  4.46$  15.82$  5.84$
  Q  -1.3290  4.7$  16.66$  5.69$
  Q  0.6645  13.14$  6.49$  18.52$
  Q  0.6645  11.72$  5.86$  18.78$
  Q  -1.3290  12.54$  6.1$  18.98$
  Q  0.6645  6.22$  5.31$  3.36$
  Q  0.6645  6.62$  4.39$  2.16$
  Q  -1.3290  6.52$  4.62$  2.99$
  Q  0.6645  3.13$  13.72$  15.61$
  Q  0.6645  1.69$  13.9$  16.18$
  Q  -1.3290  2.44$  14.14$  15.8$
  Q  0.6645  11.13$  9.51$  18.33$
  Q  0.6645  11.11$  8.32$  17.57$
  Q  -1.3290  10.76$  8.85$  18.03$
  Q  0.6645  11.42$  8.48$  21.07$
  Q  0.6645  12.56$  7.56$  20.77$
  Q  -1.3290  12.05$  7.99$  21.27$
  Q  0.6645  2.64$  10.36$  8.94$
  Q  0.6645  3.23$  11.55$  9.71$
  Q  -1.3290  2.84$  11.16$  9.07$
  Q  0.6645  4.86$  17.35$  11.99$
  Q  0.6645  6.06$  16.53$  12.53$
  Q  -1.3290  5.62$  17$  11.94$
  Q  0.6645  8.76$  11.34$  4.09$
  Q  0.6645  9.77$  11.81$  5.08$
  Q  -1.3290  9.57$  11.59$  4.28$
  Q  0.6645  15.27$  17.83$  7.09$
  Q  0.6645  15.25$  17.41$  5.5$
  Q  -1.3290  15.13$  17.32$  6.35$
  Q  0.6645  4.32$  10.56$  6.16$
  Q  0.6645  3.82$  9.09$  6.08$
  Q  -1.3290  3.89$  9.88$  5.82$
  Q  0.6645  8.41$  0.09$  5.73$
  Q  0.6645  8.98$  0.89$  4.54$
  Q  -1.3290  8.99$  0.28$  5.15$
  Q  0.6645  7.8$  5.03$  16.64$
  Q  0.6645  8.53$  6.41$  16.29$
  Q  -1.3290  8.4$  5.58$  16.42$
  Q  0.6645  4.64$  14.17$  21.99$
  Q  0.6645  6$  13.62$  21.53$
  Q  -1.3290  5.49$  14.19$  21.9$
  Q  0.6645  12.44$  20.96$  11.23$
  Q  0.6645  13.64$  20.25$  11.87$
  Q  -1.3290  13.24$  20.89$  11.47$
  Q  0.6645  10.44$  14.31$  20.14$
  Q  0.6645  11.05$  15.5$  20.87$
  Q  -1.3290  11.07$  14.84$  20.38$
  Q  0.6645  8.67$  18.42$  5.87$
  Q  0.6645  8.8$  16.9$  5.86$
  Q  -1.3290  8.77$  17.66$  5.51$
  Q  0.6645  11.15$  12.34$  18.3$
  Q  0.6645  10.68$  12.78$  16.92$
  Q  -1.3290  10.78$  12.89$  17.73$
  Q  0.6645  5.49$  10.5$  14.96$
  Q  0.6645  5.68$  9.63$  16.21$
  Q  -1.3290  5.25$  9.95$  15.55$
  Q  0.6645  9.12$  8.83$  16.06$
  Q  0.6645  7.66$  8.69$  16.43$
  Q  -1.3290  8.36$  8.51$  16$
  Q  0.6645  5.25$  6.77$  12.45$
  Q  0.6645  5.67$  8.28$  12.78$
  Q  -1.3290  5.22$  7.63$  12.44$
  Q  0.6645  5.97$  15.84$  21.24$
  Q  0.6645  7.02$  17.12$  21.19$
  Q  -1.3290  6.26$  16.68$  21.14$
  Q  0.6645  18.6$  19.67$  9.89$
  Q  0.6645  17.19$  19.05$  9.38$
  Q  -1.3290  17.99$  19.06$  9.65$
  Q  0.6645  5.58$  3.15$  13.91$
  Q  0.6645  6.56$  4.31$  13.84$
  Q  -1.3290  6.13$  3.72$  14.23$
  Q  0.6645  11.11$  14.89$  17.26$
  Q  0.6645  11.1$  16.07$  16.18$
  Q  -1.3290  10.94$  15.69$  16.95$
  Q  0.6645  14.14$  1.08$  13.73$
  Q  0.6645  13.32$  0.67$  12.64$
  Q  -1.3290  13.43$  1.08$  13.33$
  Q  0.6645  16.62$  18.67$  16.13$
  Q  0.6645  17.29$  19.78$  16.99$
  Q  -1.3290  17.01$  19.4$  16.28$
  Q  0.6645  3.15$  4.56$  9.41$
  Q  0.6645  4.12$  5.09$  8.51$
  Q  -1.3290  3.39$  4.79$  8.69$
  Q  0.6645  1.48$  10.62$  12.6$
  Q  0.6645  0.85$  12.04$  12.6$
  Q  -1.3290  0.94$  11.24$  12.83$
  Q  0.6645  12.75$  5.05$  11.13$
  Q  0.6645  13.45$  4.75$  9.82$
  Q  -1.3290  12.91$  5.12$  10.3$
  Q  0.6645  12.55$  12.61$  5.61$
  Q  0.6645  13.61$  12.59$  6.77$
  Q  -1.3290  13.04$  12.95$  6.25$
  Q  0.6645  14.67$  13.59$  18.12$
  Q  0.6645  15.72$  13.01$  17.11$
  Q  -1.3290  15.27$  13.05$  17.86$
  Q  0.6645  18.07$  15.5$  15.03$
  Q  0.6645  17.63$  15.24$  13.64$
  Q  -1.3290  17.51$  15.34$  14.43$
  Q  0.6645  3.04$  10.17$  18.84$
  Q  0.6645  4.01$  11.21$  19.61$
  Q  -1.3290  3.75$  10.48$  19.22$
  Q  0.6645  15.71$  11.85$  11.4$
  Q  0.6645  17.26$  11.88$  10.98$
  Q  -1.3290  16.41$  11.99$  10.9$
  Q  0.6645  5.73$  8.79$  9.39$
  Q  0.6645  5.51$  7.79$  10.56$
  Q  -1.3290  5.64$  8.03$  9.75$
  Q  0.6645  19.3$  10.81$  15.35$
  Q  0.6645  18.42$  9.82$  16.05$
  Q  -1.3290  18.8$  10.55$  15.95$
  Q  0.6645  4.59$  13.54$  6.4$
  Q  0.6645  3.68$  14.39$  7.21$
  Q  -1.3290  4$  14.13$  6.49$
  Q  0.6645  12.89$  10.36$  18.99$
  Q  0.6645  12.12$  11.28$  19.98$
  Q  -1.3290  12.31$  10.95$  19.22$
  Q  0.6645  7.67$  9.95$  22.37$
  Q  0.6645  8.32$  9.93$  21.03$
  Q  -1.3290  8.12$  10.32$  21.77$
  Q  0.6645  17.36$  11.97$  15.66$
  Q  0.6645  16.88$  13.38$  15.21$
  Q  -1.3290  16.82$  12.65$  15.62$
  Q  0.6645  17.02$  4.29$  14.37$
  Q  0.6645  17.8$  4.23$  15.63$
  Q  -1.3290  17.58$  4.55$  14.91$
  Q  0.6645  19.48$  10.6$  5.99$
  Q  0.6645  18.13$  10.19$  6.62$
  Q  -1.3290  18.66$  10.42$  5.98$
  Q  0.6645  10.49$  18.69$  11.99$
  Q  0.6645  11.24$  19.59$  12.96$
  Q  -1.3290  11$  18.85$  12.65$
  Q  0.6645  11.97$  16.95$  4.65$
  Q  0.6645  10.55$  17.3$  4.2$
  Q  -1.3290  11.4$  17.28$  4.12$
*
