! NoMOPrint PrintBasis #MINIPRINT SMALLPRINT LARGEPRINT
! ALLPOP XYZFILE
#! BP86 3-21G   TightSCF
! ENGRAD
! B3LYP NormalPNO PModel #DecontractAux
#! VerySlowConv 
 %maxcore 5000
 %scf  maxiter   500  end 

%pal
    nprocs 32
end

%basis
    NewGTO O    # New basis for oxygen
        "aug-cc-pVTZ"
    end
    NewGTO C    # New basis for carbon
        "aug-cc-pVTZ"
    end
    NewGTO H    # New basis for hydrogen
        "cc-pVTZ"
    end
end

* xyz 0   1
       N    9.43000000    0.83000000   -3.72000000 #   1
      H    8.96000000    0.36000000   -4.52000000 #   2
      H   10.39000000    0.69000000   -3.84000000 #   3
      H    9.19000000    1.87000000   -3.82000000 #   4
      C    8.95000000    0.11000000   -2.56000000 #   5
      H    9.26000000   -0.94000000   -2.74000000 #   6
      C    9.27000000    0.74000000   -1.22000000 #   7
     H    9.35000000   -0.11000000   -0.46000000 #   8
     H    8.46000000    1.47000000   -0.89000000 #   9
     H   10.31000000    1.18000000   -1.22000000 #  10
       C    7.48000000    0.29000000   -2.68000000 #  11
       O    7.24000000    1.25000000   -3.40000000 #  12
       N    6.73000000   -0.73000000   -2.22000000 #  13
       H    6.82000000   -0.86000000   -1.22000000 #  14
      C    5.38000000   -0.75000000   -2.77000000 #  15
      H    5.54000000   -0.48000000   -3.86000000 #  16
      C    4.65000000   -2.08000000   -2.56000000 #  17
     H    5.28000000   -2.88000000   -3.01000000 #  18
     H    3.75000000   -1.98000000   -3.19000000 #  19
     H    4.49000000   -2.49000000   -1.56000000 #  20
       C    4.51000000    0.34000000   -2.11000000 #  21
       O    4.73000000    0.65000000   -0.92000000 #  22
       N    3.56000000    0.94000000   -2.84000000 #  23
       H    3.46000000    0.42000000   -3.76000000 #  24
      C    2.48000000    1.63000000   -2.22000000 #  25
      H    3.02000000    2.19000000   -1.43000000 #  26
      C    1.66000000    2.57000000   -3.17000000 #  27
     H    1.14000000    2.00000000   -3.92000000 #  28
     H    2.40000000    3.21000000   -3.72000000 #  29
     H    0.90000000    3.25000000   -2.70000000 #  30
       C    1.71000000    0.48000000   -1.52000000 #  31
       O    1.62000000   -0.50000000   -2.22000000 #  32
       N    1.14000000    0.72000000   -0.37000000 #  33
       H    1.10000000    1.72000000   -0.26000000 #  34
      C    0.00000000    0.00000000    0.00000000 #  35
      H   -0.03000000   -0.96000000   -0.47000000 #  36
      C   -0.18000000   -0.05000000    1.47000000 #  37
     H   -0.93000000   -0.80000000    1.71000000 #  38
     H   -0.56000000    0.91000000    1.84000000 #  39
     H    0.76000000   -0.26000000    1.98000000 #  40
       C   -1.17000000    0.76000000   -0.59000000 #  41
       O   -1.05000000    2.02000000   -0.50000000 #  42
       N   -2.24000000    0.20000000   -1.21000000 #  43
       H   -2.36000000   -0.78000000   -0.91000000 #  44
      C   -3.46000000    0.97000000   -1.37000000 #  45
      H   -3.22000000    2.08000000   -1.40000000 #  46
      C   -4.23000000    0.40000000   -2.59000000 #  47
     H   -3.80000000    0.74000000   -3.53000000 #  48
     H   -5.25000000    0.80000000   -2.59000000 #  49
     H   -4.32000000   -0.74000000   -2.60000000 #  50
       C   -4.17000000    0.70000000   -0.07000000 #  51
       O   -4.25000000   -0.42000000    0.48000000 #  52
       N   -4.72000000    1.81000000    0.44000000 #  53
       H   -4.94000000    2.60000000   -0.17000000 #  54
      C   -5.69000000    1.52000000    1.48000000 #  55
      H   -5.36000000    0.56000000    1.92000000 #  56
      C   -5.68000000    2.65000000    2.55000000 #  57
     H   -6.14000000    3.56000000    2.13000000 #  58
     H   -4.66000000    2.89000000    2.91000000 #  59
     H   -6.15000000    2.31000000    3.46000000 #  60
       C   -7.04000000    1.14000000    0.81000000 #  61
       O   -7.37000000    1.72000000   -0.24000000 #  62
       N   -7.77000000    0.20000000    1.47000000 #  63
       H   -7.39000000   -0.04000000    2.45000000 #  64
      C   -9.23000000   -0.05000000    1.25000000 #  65
      H   -9.38000000   -0.19000000    0.14000000 #  66
      C   -9.82000000   -1.28000000    2.09000000 #  67
     H   -9.66000000   -1.29000000    3.19000000 #  68
     H   -9.41000000   -2.21000000    1.63000000 #  69
     H  -10.88000000   -1.29000000    1.90000000 #  70
       C   -9.87000000    1.25000000    1.79000000 #  71
     O  -10.53000000    2.05000000    1.02000000 #  72
     O   -9.53000000    1.50000000    3.01000000 #  73
      O   -5.93750000   -0.44000000    4.52000000 #  74
     H   -6.29750000    0.25000000    5.06000000 #  75
     H   -5.00750000   -0.27000000    4.39000000 #  76
      O   -7.76750000    1.43000000    5.66000000 #  77
     H   -8.50750000    0.85000000    5.68000000 #  78
     H   -7.94750000    2.16000000    5.09000000 #  79
      O   -6.20750000    3.37000000   -5.51000000 #  80
     H   -6.80750000    4.16000000   -5.60000000 #  81
     H   -5.73750000    3.35000000   -4.59000000 #  82
      O   -1.88000000    3.47000000   -4.57000000 #  83
     H   -1.55000000    4.11000000   -5.15000000 #  84
     H   -2.59000000    3.93000000   -4.09000000 #  85
      O    3.73000000    0.06000000   -6.24000000 #  86
     H    2.82000000    0.20000000   -6.45000000 #  87
     H    3.88000000   -0.86000000   -6.38000000 #  88
      O  -11.53750000   -4.66000000    1.65000000 #  89
     H  -11.75750000   -5.59000000    1.62000000 #  90
     H  -11.59750000   -4.55000000    2.57000000 #  91
      O   -0.66000000   -2.99000000    0.93000000 #  92
     H   -1.01000000   -3.67000000    1.54000000 #  93
     H    0.24000000   -3.25000000    0.72000000 #  94
      O   -3.34000000   -0.50000000    5.05000000 #  95
     H   -3.05000000   -1.34000000    4.67000000 #  96
     H   -2.65000000    0.12000000    4.72000000 #  97
      O   -6.39750000    2.81000000    7.56000000 #  98
     H   -5.71750000    2.34000000    8.05000000 #  99
     H   -6.85750000    2.19000000    6.93000000 # 100
      O    2.26000000   -2.53000000    0.21000000 # 101
     H    2.50000000   -1.66000000   -0.21000000 # 102
     H    2.95000000   -2.63000000    0.93000000 # 103
      O   -2.48000000    4.83000000    0.83000000 # 104
     H   -1.98000000    4.19000000    1.35000000 # 105
     H   -1.98000000    4.96000000    0.00000000 # 106
      O   -2.15000000   -2.92000000   -1.54000000 # 107
     H   -1.53000000   -2.94000000   -2.27000000 # 108
     H   -1.64000000   -3.08000000   -0.73000000 # 109
      O    0.03000000   -2.67000000   -3.66000000 # 110
     H    0.69000000   -3.39000000   -3.38000000 # 111
     H    0.42000000   -1.95000000   -3.19000000 # 112
      O    2.37000000   -4.34000000   -2.24000000 # 113
     H    2.46000000   -3.67000000   -1.55000000 # 114
     H    2.70000000   -5.18000000   -1.82000000 # 115
      O   -8.57750000    0.19000000   -2.11000000 # 116
     H   -8.24750000    0.74000000   -1.33000000 # 117
     H   -8.33750000   -0.74000000   -1.89000000 # 118
      O   -0.75000000    4.70000000   -1.40000000 # 119
     H   -0.75000000    3.74000000   -1.35000000 # 120
     H   -1.24000000    4.98000000   -2.22000000 # 121
      O   -5.89750000   -2.71000000    0.71000000 # 122
     H   -5.47750000   -1.80000000    0.73000000 # 123
     H   -6.38750000   -2.62000000   -0.13000000 # 124
      O    6.43000000   -1.60000000    0.69000000 # 125
     H    6.24000000   -2.47000000    0.32000000 # 126
     H    5.72000000   -1.18000000    1.13000000 # 127
      O    1.80000000    3.32000000    0.64000000 # 128
     H    1.85000000    4.09000000    0.08000000 # 129
     H    2.58000000    3.35000000    1.20000000 # 130
      O    1.80000000    6.77750000   -3.73000000 # 131
     H    1.29000000    6.06750000   -4.13000000 # 132
     H    1.88000000    6.56750000   -2.84000000 # 133
      O    1.42000000    5.95750000   -0.84000000 # 134
     H    0.59000000    5.55750000   -1.15000000 # 135
     H    1.13000000    6.79750000   -0.40000000 # 136
      O   -6.93750000    6.08750000    3.07000000 # 137
     H   -6.85750000    6.87750000    3.69000000 # 138
     H   -6.00750000    6.03750000    2.90000000 # 139
      O   -8.19750000    1.37000000   -4.88000000 # 140
     H   -7.50750000    2.07000000   -4.81000000 # 141
     H   -8.31750000    0.95000000   -4.04000000 # 142
      O   -3.91000000    4.07000000   -7.24000000 # 143
     H   -4.70000000    4.08000000   -6.73000000 # 144
     H   -3.19000000    3.95000000   -6.58000000 # 145
      O   -0.52000000    3.66000000    2.88000000 # 146
     H   -0.35000000    4.60000000    3.05000000 # 147
     H    0.16000000    3.36000000    2.24000000 # 148
      O   -4.84000000    4.44000000   -0.86000000 # 149
     H   -5.80000000    4.71000000   -0.86000000 # 150
     H   -4.43000000    5.01000000   -0.23000000 # 151
      O   -1.71000000    0.91000000   -5.49000000 # 152
     H   -1.74000000    1.78000000   -4.98000000 # 153
     H   -2.39000000    0.95000000   -6.16000000 # 154
      O   12.20000000    0.83000000   -4.56000000 # 155
     H   12.56000000    1.47000000   -3.88000000 # 156
     H   11.92000000    1.32000000   -5.30000000 # 157
      O   12.71000000   -1.90000000   -3.74000000 # 158
     H   12.59000000   -1.00000000   -3.84000000 # 159
     H   11.87000000   -2.37000000   -3.80000000 # 160
      O    2.83000000   -4.97000000   -4.86000000 # 161
     H    1.93000000   -5.30000000   -4.81000000 # 162
     H    3.00000000   -4.59000000   -3.96000000 # 163
      O   -8.06750000   -4.51000000    2.63000000 # 164
     H   -8.37750000   -5.13000000    1.93000000 # 165
     H   -7.49750000   -3.86000000    2.27000000 # 166
      O  -11.97750000   -4.28000000    4.55000000 # 167
     H  -12.29750000   -5.24000000    4.55000000 # 168
     H  -12.57750000   -3.79000000    5.14000000 # 169
      O    5.34000000   -5.72000000   -2.63000000 # 170
     H    4.73000000   -6.33000000   -3.01000000 # 171
     H    6.04000000   -5.52000000   -3.19000000 # 172
      O   10.56000000   -3.73000000   -3.45000000 # 173
     H   10.24000000   -3.72000000   -4.37000000 # 174
     H   10.97000000   -4.58000000   -3.37000000 # 175
      O   -5.97750000   -2.92000000    3.55000000 # 176
     H   -6.23750000   -1.97000000    3.87000000 # 177
     H   -5.74750000   -2.92000000    2.58000000 # 178
      O    6.71000000   -4.74000000   -5.42000000 # 179
     H    6.27000000   -3.94000000   -5.54000000 # 180
     H    6.54000000   -5.24000000   -6.21000000 # 181
      O  -11.54750000    4.79000000    0.89000000 # 182
     H  -12.35750000    4.59000000    0.43000000 # 183
     H  -11.16750000    3.92000000    0.96000000 # 184
      O   11.67000000    0.66000000    0.26000000 # 185
     H   12.61000000    0.84000000    0.20000000 # 186
     H   11.52000000   -0.28000000    0.37000000 # 187
      O  -13.41750000   -0.57000000    5.20000000 # 188
     H  -12.52750000   -0.23000000    5.32000000 # 189
     H  -13.87750000    0.06000000    5.80000000 # 190
      O  -10.95750000    1.03000000   -3.41000000 # 191
     H  -10.06750000    0.71000000   -2.96000000 # 192
     H  -11.60750000    0.78000000   -2.71000000 # 193
      O   -1.30000000    1.57000000    4.94000000 # 194
     H   -1.10000000    2.34000000    4.35000000 # 195
     H   -1.49000000    1.95000000    5.76000000 # 196
      O    2.66000000   -0.82000000    3.75000000 # 197
     H    3.31000000   -0.39000000    3.17000000 # 198
     H    2.35000000   -0.04000000    4.28000000 # 199
      O   13.10000000    2.35000000   -2.47000000 # 200
     H   13.65000000    1.89000000   -1.84000000 # 201
     H   13.70000000    2.98000000   -2.87000000 # 202
      O   -9.25750000   -4.10000000    5.13000000 # 203
     H  -10.17750000   -4.13000000    5.10000000 # 204
     H   -9.03750000   -4.15000000    4.15000000 # 205
      O    9.15000000    4.06000000    0.62000000 # 206
     H    9.34000000    4.02000000    1.55000000 # 207
     H    8.38000000    4.65000000    0.56000000 # 208
      O  -11.42750000   -7.65000000    1.88000000 # 209
     H  -11.89750000   -7.58000000    1.05000000 # 210
     H  -10.45750000   -7.49000000    1.69000000 # 211
      O    9.33000000    3.52000000   -4.50000000 # 212
     H    9.08000000    4.31000000   -3.95000000 # 213
     H   10.20000000    3.73000000   -4.84000000 # 214
      O  -10.84750000   -3.59000000   -0.77000000 # 215
     H  -11.18750000   -3.83000000    0.13000000 # 216
     H  -11.43750000   -4.18000000   -1.23000000 # 217
      O  -11.79750000    4.77000000    3.82000000 # 218
     H  -11.97750000    5.01000000    2.90000000 # 219
     H  -10.87750000    4.59000000    3.87000000 # 220
      O   -4.67000000    1.97000000    9.70000000 # 221
     H   -4.68000000    1.09000000   10.07000000 # 222
     H   -3.71000000    2.19000000    9.63000000 # 223
      O   -9.00750000    4.43000000    4.02000000 # 224
     H   -8.64750000    5.10000000    3.47000000 # 225
     H   -9.25750000    3.63000000    3.49000000 # 226
      O   -9.94750000    5.76750000   -1.23000000 # 227
     H  -10.37750000    5.44750000   -0.40000000 # 228
     H  -10.00750000    6.73750000   -1.18000000 # 229
      O  -13.24750000    2.19000000    3.55000000 # 230
     H  -12.40750000    2.58000000    3.45000000 # 231
     H  -13.12750000    1.60000000    4.29000000 # 232
      O    0.58000000   -2.82000000    3.96000000 # 233
     H    1.03000000   -1.99000000    3.66000000 # 234
     H    0.90000000   -2.88000000    4.88000000 # 235
      O    9.06000000   -3.19000000   -1.18000000 # 236
     H    9.37000000   -3.40000000   -2.07000000 # 237
     H    9.76000000   -2.77000000   -0.67000000 # 238
      O   -6.93750000    3.76000000   10.51750000 # 239
     H   -6.34750000    3.28000000    9.98750000 # 240
     H   -7.69750000    3.15000000   10.73750000 # 241
      O   -8.90750000   -1.60000000    6.44000000 # 242
     H   -9.04750000   -2.26000000    5.79000000 # 243
     H   -9.81750000   -1.26000000    6.61000000 # 244
      O   -8.98750000    3.96000000    8.32000000 # 245
     H   -9.26750000    4.50000000    9.06000000 # 246
     H   -8.14750000    3.57000000    8.57000000 # 247
      O   10.71000000    1.14000000   -6.86000000 # 248
     H   10.38000000    1.87000000   -7.39000000 # 249
     H   11.41000000    0.79000000   -7.38000000 # 250
      O    0.92000000    0.06000000   -7.24000000 # 251
     H    0.76000000   -0.90000000   -7.40000000 # 252
     H    0.20000000    0.27000000   -6.68000000 # 253
      O  -13.03750000   -1.61000000   -0.45000000 # 254
     H  -13.55750000   -1.96000000    0.28000000 # 255
     H  -12.25750000   -2.17000000   -0.57000000 # 256
      O   -2.16000000   -3.00000000    4.37000000 # 257
     H   -1.23000000   -3.05000000    4.11000000 # 258
     H   -2.77000000   -3.52000000    3.85000000 # 259
      O  -12.27750000   -7.13000000    4.48000000 # 260
     H  -11.94750000   -7.17000000    3.53000000 # 261
     H  -11.50750000   -7.15000000    5.08000000 # 262
      O    4.73000000    3.22000000    0.34000000 # 263
     H    4.79000000    4.09000000   -0.08000000 # 264
     H    5.09000000    2.58000000   -0.24000000 # 265
      O    2.07000000    3.99000000   -6.80000000 # 266
     H    2.35000000    3.14000000   -7.22000000 # 267
     H    2.68000000    4.05000000   -6.03000000 # 268
      O    8.55000000   -3.09000000    2.26000000 # 269
     H    7.95000000   -2.73000000    1.60000000 # 270
     H    7.96000000   -3.57000000    2.85000000 # 271
      O    4.58000000    0.32000000    1.95000000 # 272
     H    4.78000000    0.71000000    1.07000000 # 273
     H    5.29000000    0.67000000    2.41000000 # 274
      O    4.15000000   -3.80000000    1.81000000 # 275
     H    3.99000000   -3.53000000    2.71000000 # 276
     H    5.08000000   -3.84000000    1.85000000 # 277
      O    6.44000000   -4.03000000   -0.61000000 # 278
     H    5.90000000   -4.68000000   -1.09000000 # 279
     H    7.35000000   -4.14000000   -0.98000000 # 280
      O   -4.22000000    4.20000000   -3.50000000 # 281
     H   -4.35000000    4.99000000   -4.07000000 # 282
     H   -4.49000000    4.41000000   -2.61000000 # 283
      O    7.32000000    3.20000000   -6.72000000 # 284
     H    7.65000000    3.47000000   -7.57000000 # 285
     H    8.01000000    3.38000000   -6.10000000 # 286
      O   -4.53000000   -3.32000000   -3.71000000 # 287
     H   -3.87000000   -3.72000000   -3.13000000 # 288
     H   -3.92000000   -2.71000000   -4.11000000 # 289
      O   -3.82000000    6.45750000    2.90000000 # 290
     H   -3.45000000    5.95750000    2.18000000 # 291
     H   -3.49000000    7.32750000    2.52000000 # 292
      O    6.39000000    3.70000000   -2.75000000 # 293
     H    6.74000000    4.39000000   -2.20000000 # 294
     H    7.02000000    2.97000000   -2.70000000 # 295
      O    8.73000000   -0.73000000   -5.81000000 # 296
     H    9.49000000   -0.18000000   -6.21000000 # 297
     H    7.79000000   -0.40000000   -6.07000000 # 298
      O  -10.57750000    0.49000000    5.22000000 # 299
     H  -10.73750000    1.21000000    5.82000000 # 300
     H  -10.21750000    0.70000000    4.41000000 # 301
      O    4.55000000   -3.03000000   -6.52000000 # 302
     H    4.85000000   -3.30000000   -7.39000000 # 303
     H    3.82000000   -3.59000000   -6.22000000 # 304
      O   -4.69000000   -0.02000000    7.32000000 # 305
     H   -4.07000000   -0.05000000    6.54000000 # 306
     H   -4.32000000    0.38000000    8.09000000 # 307
      O    4.07000000    5.78750000   -0.52000000 # 308
     H    4.13000000    6.64750000   -0.04000000 # 309
     H    3.12000000    5.70750000   -0.69000000 # 310
      O    4.86000000    3.68000000   -5.14000000 # 311
     H    5.37000000    3.54000000   -4.32000000 # 312
     H    5.52000000    3.46000000   -5.87000000 # 313
      O  -12.35750000    1.18000000   -0.89000000 # 314
     H  -11.62750000    1.39000000   -0.38000000 # 315
     H  -12.59750000    0.29000000   -0.54000000 # 316
      O   -4.45000000    4.45000000    7.22000000 # 317
     H   -4.08000000    4.80000000    6.40000000 # 318
     H   -5.34000000    4.17000000    7.06000000 # 319
      O   11.95000000    0.16000000    3.29000000 # 320
     H   11.86000000    0.37000000    2.32000000 # 321
     H   12.47000000    0.90000000    3.67000000 # 322
      O    9.24000000   -3.41000000   -5.75000000 # 323
     H    9.05000000   -2.45000000   -5.93000000 # 324
     H    8.45000000   -3.88000000   -5.57000000 # 325
      O   11.37000000    4.64000000   -0.99000000 # 326
     H   11.82000000    3.91000000   -1.38000000 # 327
     H   10.67000000    4.37000000   -0.36000000 # 328
      O    6.47000000    0.45000000   -7.14000000 # 329
     H    6.84000000    1.29000000   -7.01000000 # 330
     H    5.65000000    0.43000000   -6.62000000 # 331
      O   -1.91000000   -1.82000000   -5.25000000 # 332
     H   -1.19000000   -2.16000000   -4.76000000 # 333
     H   -1.91000000   -0.86000000   -5.16000000 # 334
      O    0.02000000    5.27000000   -5.64000000 # 335
     H    0.15000000    6.05000000   -6.13000000 # 336
     H    0.58000000    4.69000000   -6.18000000 # 337
      O   -8.25750000    4.80000000   -7.03000000 # 338
     H   -8.41750000    5.42000000   -6.32000000 # 339
     H   -8.52750000    5.30000000   -7.82000000 # 340
      O  -14.00750000   -2.61000000    3.20000000 # 341
     H  -13.80750000   -1.71000000    3.47000000 # 342
     H  -13.28750000   -3.07000000    3.56000000 # 343
      O   -4.23000000   -4.68000000   -0.26000000 # 344
     H   -4.94000000   -4.14000000    0.15000000 # 345
     H   -3.67000000   -4.01000000   -0.69000000 # 346
      O    1.47000000    0.99000000    5.60000000 # 347
     H    0.53000000    1.15000000    5.29000000 # 348
     H    1.46000000    0.46000000    6.47000000 # 349
      O   11.32000000   -2.07000000    0.35000000 # 350
     H   11.10000000   -2.41000000    1.25000000 # 351
     H   12.18000000   -2.42000000    0.16000000 # 352
      O   -7.93750000   -2.48000000   -1.40000000 # 353
     H   -8.80750000   -2.76000000   -1.04000000 # 354
     H   -7.71750000   -3.20000000   -2.08000000 # 355
   Q       0.66450000      13.96000000      -1.70000000      -2.27000000
   Q       0.66450000      15.12000000      -0.79000000      -1.92000000
   Q      -1.32900000      14.50000000      -1.37000000      -1.75000000
   Q       0.66450000      -7.61750000      -7.04000000       1.09000000
   Q       0.66450000      -8.15750000      -7.50000000       2.49000000
   Q      -1.32900000      -8.20750000      -7.30000000       1.67000000
   Q       0.66450000       6.73000000       2.38000000       6.97000000
   Q       0.66450000       6.46000000       2.16000000       5.41000000
   Q      -1.32900000       6.92000000       2.29000000       6.13000000
   Q       0.66450000      -7.46750000      -1.93000000       7.52000000
   Q       0.66450000      -5.99750000      -1.21000000       7.48000000
   Q      -1.32900000      -6.67750000      -1.71000000       7.84000000
   Q       0.66450000     -10.65750000       3.19000000       7.31000000
   Q       0.66450000     -11.97750000       3.04000000       6.79000000
   Q      -1.32900000     -11.24750000       2.73000000       7.08000000
   Q       0.66450000      -0.40000000      -2.42000000      -8.32000000
   Q       0.66450000       0.90000000      -3.35000000      -8.35000000
   Q      -1.32900000       0.44000000      -2.62000000      -8.27000000
   Q       0.66450000       9.03000000       6.36750000      -2.60000000
   Q       0.66450000       7.57000000       6.18750000      -3.04000000
   Q      -1.32900000       8.38000000       5.99750000      -3.02000000
   Q       0.66450000     -14.84750000       2.18000000       6.84000000
   Q       0.66450000     -14.66750000       0.82000000       7.56000000
   Q      -1.32900000     -14.38750000       1.48000000       7.09000000
   Q       0.66450000       7.41000000      -2.40000000      -8.87000000
   Q       0.66450000       8.04000000      -1.64000000      -7.68000000
   Q      -1.32900000       8.03000000      -2.05000000      -8.42000000
   Q       0.66450000       5.49000000       6.64750000       3.26000000
   Q       0.66450000       5.34000000       5.10750000       3.37000000
   Q      -1.32900000       5.06000000       5.90750000       3.34000000
   Q       0.66450000      -8.62750000       5.31750000       6.99000000
   Q       0.66450000      -8.53750000       5.37750000       5.60000000
   Q      -1.32900000      -8.50750000       5.72750000       6.32000000
   Q       0.66450000      -6.77750000      -7.13000000      -0.99000000
   Q       0.66450000      -5.56750000      -6.16000000      -0.46000000
   Q      -1.32900000      -6.17750000      -6.81000000      -0.43000000
   Q       0.66450000      -6.00750000      -5.03000000       6.10000000
   Q       0.66450000      -5.83750000      -4.47000000       4.58000000
   Q      -1.32900000      -5.77750000      -5.05000000       5.27000000
   Q       0.66450000      -6.65750000       6.58750000      -0.92000000
   Q       0.66450000      -8.05750000       5.77750000      -1.08000000
   Q      -1.32900000      -7.24750000       6.07750000      -1.30000000
   Q       0.66450000       1.97000000       2.68000000       7.03000000
   Q       0.66450000       2.36000000       4.15000000       7.21000000
   Q      -1.32900000       2.35000000       3.35000000       7.41000000
   Q       0.66450000      14.06000000       5.53000000       0.23000000
   Q       0.66450000      12.71000000       4.97000000       0.01000000
   Q      -1.32900000      13.44000000       5.03000000       0.41000000
   Q       0.66450000      -7.36750000      -0.17000000      10.70000000
   Q       0.66450000      -6.82750000       0.06000000       9.29000000
   Q      -1.32900000      -7.35750000       0.14000000       9.93000000
   Q       0.66450000       5.53000000       6.69750000      -4.46000000
   Q       0.66450000       5.63000000       5.45750000      -5.11000000
   Q      -1.32900000       5.65000000       6.26750000      -5.13000000
   Q       0.66450000      -4.28000000       6.61750000      -5.77000000
   Q       0.66450000      -5.52000000       7.07750000      -4.82000000
   Q      -1.32900000      -5.00000000       6.53750000      -5.25000000
   Q       0.66450000      13.78000000      -3.13000000      -4.83000000
   Q       0.66450000      14.37000000      -3.80000000      -5.96000000
   Q      -1.32900000      14.35000000      -3.56000000      -5.18000000
   Q       0.66450000     -15.07750000       4.48000000      -0.07000000
   Q       0.66450000     -14.07750000       4.63000000      -1.24000000
   Q      -1.32900000     -14.44750000       4.83000000      -0.51000000
   Q       0.66450000      14.25000000       2.68000000       0.33000000
   Q       0.66450000      15.01000000       1.42000000       0.69000000
   Q      -1.32900000      14.48000000       1.90000000       0.24000000
   Q       0.66450000     -11.52750000      -1.25000000      -5.45000000
   Q       0.66450000     -10.82750000       0.12000000      -5.25000000
   Q      -1.32900000     -11.08750000      -0.57000000      -5.65000000
   Q       0.66450000       4.77000000       7.01750000      -6.96000000
   Q       0.66450000       4.37000000       7.22750000      -8.54000000
   Q      -1.32900000       4.47000000       7.46750000      -7.68000000
   Q       0.66450000      -7.40750000       8.61750000       8.09000000
   Q       0.66450000      -7.41750000       7.25750000       7.26000000
   Q      -1.32900000      -7.14750000       8.03750000       7.53000000
   Q       0.66450000      -5.06000000      -5.89000000      -6.58000000
   Q       0.66450000      -5.25000000      -4.56000000      -5.82000000
   Q      -1.32900000      -5.17000000      -5.07000000      -6.47000000
   Q       0.66450000      15.26000000       4.43000000      -2.29000000
   Q       0.66450000      14.61000000       4.92000000      -3.69000000
   Q      -1.32900000      14.98000000       4.36000000      -3.11000000
   Q       0.66450000       9.25000000      -3.57000000      -8.77000000
   Q       0.66450000       9.78000000      -4.89000000      -9.07000000
   Q      -1.32900000       9.54000000      -4.14000000      -9.29000000
   Q       0.66450000     -15.11750000      -1.09000000      -3.23000000
   Q       0.66450000     -14.34750000      -2.10000000      -2.12000000
   Q      -1.32900000     -14.73750000      -1.82000000      -2.88000000
   Q       0.66450000      -0.35000000       7.91750000      -7.93000000
   Q       0.66450000       0.77000000       8.02750000      -6.94000000
   Q      -1.32900000       0.04000000       7.72750000      -7.23000000
   Q       0.66450000      -1.05000000       6.38750000       5.74000000
   Q       0.66450000      -0.40000000       6.32750000       7.10000000
   Q      -1.32900000      -0.45000000       6.53750000       6.29000000
   Q       0.66450000     -15.87750000      -2.36000000       3.73000000
   Q       0.66450000     -17.07750000      -1.40000000       3.43000000
   Q      -1.32900000     -16.69750000      -2.13000000       3.58000000
   Q       0.66450000     -14.10750000       4.68000000       6.38000000
   Q       0.66450000     -12.87750000       4.69000000       5.45000000
   Q      -1.32900000     -13.26750000       4.66000000       6.19000000
   Q       0.66450000      15.62000000       0.03000000      -6.02000000
   Q       0.66450000      14.18000000      -0.41000000      -5.72000000
   Q      -1.32900000      14.89000000       0.05000000      -5.61000000
   Q       0.66450000       3.48000000      -4.14000000       4.69000000
   Q       0.66450000       3.08000000      -2.65000000       4.41000000
   Q      -1.32900000       3.61000000      -3.30000000       4.56000000
   Q       0.66450000      -3.60000000       0.87000000      -8.54000000
   Q       0.66450000      -4.18000000       1.74000000      -7.33000000
   Q      -1.32900000      -3.83000000       1.04000000      -7.74000000
   Q       0.66450000      -3.24000000       9.41750000       2.32000000
   Q       0.66450000      -2.58000000       9.04750000       0.93000000
   Q      -1.32900000      -3.00000000       8.91750000       1.66000000
   Q       0.66450000     -10.13750000       1.92000000       9.03000000
   Q       0.66450000      -9.16750000       0.85000000       9.65000000
   Q      -1.32900000      -9.90750000       1.30000000       9.55000000
   Q       0.66450000       5.29000000       6.39750000      -2.02000000
   Q       0.66450000       5.57000000       7.89750000      -2.32000000
   Q      -1.32900000       5.69000000       7.05750000      -2.40000000
   Q       0.66450000      11.48000000      -6.91000000      -3.80000000
   Q       0.66450000      11.26000000      -6.02000000      -5.03000000
   Q      -1.32900000      11.06000000      -6.37000000      -4.28000000
   Q       0.66450000     -14.65750000       3.76000000       3.30000000
   Q       0.66450000     -15.02750000       5.28000000       3.28000000
   Q      -1.32900000     -15.17750000       4.45000000       3.23000000
   Q       0.66450000      -6.86750000       0.70000000      -6.44000000
   Q       0.66450000      -5.52750000       0.20000000      -7.09000000
   Q      -1.32900000      -6.37750000       0.17000000      -6.89000000
   Q       0.66450000      -7.21750000       9.15750000       4.30000000
   Q       0.66450000      -6.70750000       8.58750000       5.68000000
   Q      -1.32900000      -6.73750000       8.68750000       4.82000000
   Q       0.66450000     -11.33750000       7.28750000       6.17000000
   Q       0.66450000     -12.37750000       6.36750000       6.79000000
   Q      -1.32900000     -11.91750000       7.06750000       6.74000000
   Q       0.66450000      -9.35750000       8.77750000       2.09000000
   Q       0.66450000      -8.63750000      10.08750000       2.22000000