! NoMOPrint PrintBasis #MINIPRINT SMALLPRINT LARGEPRINT
! ALLPOP XYZFILE
#! BP86 3-21G   TightSCF
! ENGRAD
! B3LYP NormalPNO PModel #DecontractAux
#! VerySlowConv 
 %maxcore 5000
 %scf  maxiter   500  end 

%pal
    nprocs 32
end

%basis
    NewGTO O    # New basis for oxygen
        "aug-cc-pVTZ"
    end
    NewGTO C    # New basis for carbon
        "aug-cc-pVTZ"
    end
    NewGTO H    # New basis for hydrogen
        "cc-pVTZ"
    end
end

* xyz 0   1
  C  12.83  10.43  10.92  #1
  H  12.75  10.31  9.89  #2
  H  12.48  9.48  11.51  #3
  C  11.81  11.55  11.05  #4
  H  12.26  12.22  11.81  #5
  H  11.91  12.19  10.13  #6
  C  10.3  11.29  11.45  #7
  H  9.92  12.09  11.99  #8
  H  10.27  10.38  12.06  #9
  C  9.33  11.16  10.35  #10
  H  9.54  10.35  9.63  #11
  H  9.38  12.11  9.81  #12
  O  7.95  11.07  10.96  #13
  H  7.41  10.64  10.33  #14
  O  14.22  10.66  11.07  #15
  H  14.28  11.08  12.02  #16
  O  15.18  11.06  13.49  #17
  H  15.34  12  13.2  #18
  H  15.7  10.34  12.97  #19
  O  11.98  14.17  13.67  #20
  H  11.54  14.78  13.07  #21
  H  12.91  14.09  13.36  #22
  O  10.52  7.73  8.57  #23
  H  11.02  8.5  8.47  #24
  H  9.67  7.97  8.18  #25
  O  8.5  14.08  11.59  #26
  H  7.98  14.53  12.24  #27
  H  8.35  13.17  11.94  #28
  O  13.43  7.49  13.45  #29
  H  13.25  8.17  14.09  #30
  H  14.25  7.79  13.01  #31
  O  16.66  11.74  10.27  #32
  H  15.73  11.4  10.38  #33
  H  17.21  11.56  11.08  #34
  O  15.5  8.44  9.69  #35
  H  15.22  9.18  10.23  #36
  H  15.02  8.52  8.85  #37
  O  12.06  9.84  7.82  #38
  H  12.13  10.7  7.34  #39
  H  12.78  9.25  7.56  #40
  O  15.64  14.32  9.42  #41
  H  15.97  13.41  9.61  #42
  H  15.03  14.1  8.67  #43
  O  14.87  5.95  10.94  #44
  H  14.04  5.64  11.26  #45
  H  14.86  6.97  10.75  #46
  O  15.97  8.15  12.82  #47
  H  15.93  7.85  13.76  #48
  H  16.85  8.04  12.5  #49
  O  6.27  9.53  9.09  #50
  H  5.91  8.94  9.79  #51
  H  6.98  9.06  8.56  #52
  O  13.88  10.14  15.73  #53
  H  14.16  10.59  16.54  #54
  H  14.5  10.38  15.04  #55
  O  4.76  11.72  8.24  #56
  H  5.12  12.29  7.58  #57
  H  5.36  10.93  8.37  #58
  O  10.94  5.67  6.17  #59
  H  10.83  5.86  7.11  #60
  H  10.15  6.01  5.7  #61
  O  14.81  13.74  12.41  #62
  H  15.14  14.49  12.91  #63
  H  14.89  13.98  11.48  #64
  O  7.89  7.85  7.67  #65
  H  7.82  7.09  8.24  #66
  H  7.93  7.35  6.8  #67
  O  13.72  13.16  15.84  #68
  H  14.59  13.29  16.28  #69
  H  13.93  12.44  15.19  #70
  O  18.33  12.1  8.2  #71
  H  18.15  11.35  7.62  #72
  H  17.75  11.85  8.9  #73
  O  7.53  12.91  7.84  #74
  H  7.2  13.63  7.31  #75
  H  7.29  12.11  7.37  #76
  O  6.45  15.89  10.49  #77
  H  6.97  15.17  10.18  #78
  H  6.37  16.39  9.65  #79
  O  11.28  8.56  5.05  #80
  H  11.68  7.69  5.24  #81
  H  11.2  9  5.93  #82
  O  12.17  5.5  11.79  #83
  H  12.48  6.1  12.51  #84
  H  11.32  5.76  11.64  #85
  O  10.04  13.97  8.34  #86
  H  10.07  14.19  9.26  #87
  H  9.18  13.54  8.25  #88
  O  11.02  9.67  15.11  #89
  H  10.7  10.56  14.84  #90
  H  11.87  9.82  15.54  #91
  O  7.18  12.04  13.45  #92
  H  7.12  11.27  14.03  #93
  H  7.13  11.62  12.57  #94
  O  9.53  5.98  10.82  #95
  H  8.93  6.28  11.59  #96
  H  9.88  6.75  10.33  #97
  O  9.68  12.4  14.81  #98
  H  10.34  13.02  14.43  #99
  H  8.91  12.52  14.22  #100
  O  10.92  14.97  10.68  #101
  H  10.11  14.83  11.25  #102
  H  11.01  15.97  10.71  #103
  O  7.2  15.94  13.34  #104
  H  6.55  15.57  13.99  #105
  H  6.64  16.26  12.58  #106
  O  18.18  11.28  12.49  #107
  H  18.19  10.83  13.33  #108
  H  19.01  11.08  12.11  #109
  Q  0.6645  15.04$  2.8$  7.87$
  Q  0.6645  14.35$  3.02$  6.52$
  Q  -1.3290  15.01$  2.85$  7.03$
  Q  0.6645  17.76$  7.54$  4.48$
  Q  0.6645  17.81$  6.99$  6.04$
  Q  -1.3290  17.79$  6.99$  5.16$
  Q  0.6645  18.08$  17.79$  18.93$
  Q  0.6645  16.98$  16.92$  18.29$
  Q  -1.3290  17.69$  17.38$  18.31$
  Q  0.6645  3.44$  7.79$  3.1$
  Q  0.6645  2.69$  8.6$  2.16$
  Q  -1.3290  2.96$  8.41$  2.93$
  Q  0.6645  3.7$  12.05$  14.16$
  Q  0.6645  5.17$  11.89$  14.4$
  Q  -1.3290  4.42$  12.21$  14.54$
  Q  0.6645  4.62$  12.97$  9.97$
  Q  0.6645  5.04$  14.5$  10.22$
  Q  -1.3290  4.5$  13.82$  10.11$
  Q  0.6645  2.82$  12.46$  7.79$
  Q  0.6645  1.25$  12.75$  8.07$
  Q  -1.3290  1.98$  12.63$  7.59$
  Q  0.6645  16.13$  10.93$  17.99$
  Q  0.6645  14.9$  10.22$  18.54$
  Q  -1.3290  15.32$  10.87$  18.19$
  Q  0.6645  7.33$  1.31$  12.64$
  Q  0.6645  8.41$  2.03$  11.85$
  Q  -1.3290  7.71$  1.99$  12.32$
  Q  0.6645  4.62$  5.68$  16.03$
  Q  0.6645  4.27$  4.43$  14.94$
  Q  -1.3290  4.73$  4.97$  15.48$
  Q  0.6645  0.06$  4.99$  12.41$
  Q  0.6645  0.09$  6.1$  11.43$
  Q  -1.3290  0.45$  5.59$  11.99$
  Q  0.6645  21.4$  13.08$  10$
  Q  0.6645  22.26$  13.14$  11.33$
  Q  -1.3290  21.56$  13.06$  10.85$
  Q  0.6645  9.37$  17.24$  7.33$
  Q  0.6645  10.04$  16.17$  8.15$
  Q  -1.3290  10.03$  16.82$  7.63$
  Q  0.6645  3.54$  14.37$  14.76$
  Q  0.6645  3.06$  15.78$  14.33$
  Q  -1.3290  2.96$  14.95$  14.6$
  Q  0.6645  7.83$  17.24$  18.29$
  Q  0.6645  9.06$  17.63$  19.18$
  Q  -1.3290  8.49$  17.12$  18.82$
  Q  0.6645  0.56$  10.69$  9.33$
  Q  0.6645  1.76$  9.91$  9.79$
  Q  -1.3290  1.34$  10.59$  9.6$
  Q  0.6645  2.05$  4.35$  9.66$
  Q  0.6645  1.53$  4.26$  11.06$
  Q  -1.3290  1.92$  3.97$  10.4$
  Q  0.6645  15.74$  8.1$  1.84$
  Q  0.6645  16.57$  6.95$  1.23$
  Q  -1.3290  16.36$  7.77$  1.33$
  Q  0.6645  9.86$  3.78$  7.53$
  Q  0.6645  9.97$  3.41$  8.96$
  Q  -1.3290  10.31$  3.61$  8.23$
  Q  0.6645  8.35$  9.97$  4.7$
  Q  0.6645  9.49$  9.09$  4.16$
  Q  -1.3290  8.71$  9.38$  4.2$
  Q  0.6645  5.65$  2.9$  9.73$
  Q  0.6645  6.92$  2.7$  10.52$
  Q  -1.3290  6.48$  2.87$  9.83$
  Q  0.6645  13.41$  8.4$  19.02$
  Q  0.6645  12.47$  9.44$  19.78$
  Q  -1.3290  13.13$  9.18$  19.29$
  Q  0.6645  14.97$  4.45$  13.04$
  Q  0.6645  14.71$  3.08$  13.78$
  Q  -1.3290  14.99$  3.9$  13.69$
  Q  0.6645  3.33$  10.48$  4.26$
  Q  0.6645  4.06$  11.76$  4.69$
  Q  -1.3290  3.73$  11$  4.8$
  Q  0.6645  19.38$  6.76$  15.41$
  Q  0.6645  20.83$  6.37$  15.04$
  Q  -1.3290  20.18$  6.52$  15.57$
  Q  0.6645  18.91$  9.34$  6.28$
  Q  0.6645  19.86$  8.29$  5.65$
  Q  -1.3290  19.65$  9.01$  6.08$
  Q  0.6645  20.6$  5.66$  7.64$
  Q  0.6645  21.02$  7.05$  7.25$
  Q  -1.3290  20.49$  6.47$  7.55$
  Q  0.6645  11.98$  4.78$  8.82$
  Q  0.6645  12.37$  5.88$  9.67$
  Q  -1.3290  12.47$  5.42$  8.97$
  Q  0.6645  6.26$  4.67$  13.71$
  Q  0.6645  7.31$  3.73$  13.2$
  Q  -1.3290  7.05$  4.44$  13.56$
  Q  0.6645  8.39$  6.33$  1.78$
  Q  0.6645  9.72$  6.98$  2.27$
  Q  -1.3290  8.92$  6.7$  2.34$
  Q  0.6645  9.1$  10.44$  0.74$
  Q  0.6645  9.03$  9.53$  1.97$
  Q  -1.3290  9.34$  9.84$  1.25$
  Q  0.6645  15.62$  19.62$  7.38$
  Q  0.6645  15.23$  19.06$  8.76$
  Q  -1.3290  15.58$  19.62$  8.21$
  Q  0.6645  16.02$  18.55$  16.87$
  Q  0.6645  16.49$  19.59$  15.93$
  Q  -1.3290  16.01$  19.3$  16.54$
  Q  0.6645  9.6$  20.18$  10.11$
  Q  0.6645  9.58$  20.44$  11.67$
  Q  -1.3290  9.66$  19.97$  10.95$
  Q  0.6645  17.34$  15.6$  9.64$
  Q  0.6645  18.67$  15.93$  10.49$
  Q  -1.3290  17.96$  16.1$  9.99$
  Q  0.6645  7.89$  12.21$  17.93$
  Q  0.6645  7.5$  10.88$  18.69$
  Q  -1.3290  7.65$  11.69$  18.59$
  Q  0.6645  12.82$  15.39$  7.48$
  Q  0.6645  12.25$  15.04$  8.88$
  Q  -1.3290  12.87$  15.07$  8.27$
  Q  0.6645  18.75$  3.91$  9.1$
  Q  0.6645  18.5$  5.08$  9.92$
  Q  -1.3290  18.97$  4.46$  9.65$
  Q  0.6645  8.9$  2.56$  4.55$
  Q  0.6645  10.2$  2.06$  5.13$
  Q  -1.3290  9.43$  2.37$  5.18$
  Q  0.6645  4.87$  13.04$  19.77$
  Q  0.6645  6.32$  12.4$  19.45$
  Q  -1.3290  5.7$  12.8$  19.92$
  Q  0.6645  2.39$  14.95$  3.47$
  Q  0.6645  2.09$  15.36$  4.97$
  Q  -1.3290  2.55$  15.34$  4.24$
  Q  0.6645  14.66$  6.32$  18.79$
  Q  0.6645  13.57$  6.63$  19.85$
  Q  -1.3290  13.91$  6.63$  19.07$
  Q  0.6645  19.71$  4.15$  11.38$
  Q  0.6645  19.09$  4.27$  12.77$
  Q  -1.3290  19.7$  4.09$  12.21$
  Q  0.6645  19.97$  11.14$  8.5$
  Q  0.6645  20.64$  10.03$  7.69$
  Q  -1.3290  20.46$  10.46$  8.4$
  Q  0.6645  17.59$  8.27$  15.24$
  Q  0.6645  17.08$  7.25$  16.33$
  Q  -1.3290  17.32$  7.5$  15.55$
  Q  0.6645  1.87$  10.46$  7.55$
  Q  0.6645  2.74$  10.41$  6.3$
  Q  -1.3290  2.1$  10.14$  6.81$
  Q  0.6645  7.34$  5.58$  5.05$
  Q  0.6645  8.41$  6.34$  4.46$
  Q  -1.3290  8$  6.03$  5.09$
  Q  0.6645  11.97$  3.76$  14.02$
  Q  0.6645  10.85$  3.62$  15.09$
  Q  -1.3290  11.63$  3.47$  14.71$
  Q  0.6645  9.21$  13.34$  16.26$
  Q  0.6645  9.26$  14.76$  17.01$
  Q  -1.3290  8.93$  14.01$  16.75$
  Q  0.6645  18.84$  16.61$  13.17$
  Q  0.6645  18.3$  15.23$  13.81$
  Q  -1.3290  18.26$  16.05$  13.51$
  Q  0.6645  20.14$  13.64$  17.93$
  Q  0.6645  20.82$  12.34$  17.75$
  Q  -1.3290  20.27$  12.93$  17.57$
  Q  0.6645  5.42$  17.06$  16.84$
  Q  0.6645  5.99$  15.65$  17.04$
  Q  -1.3290  5.8$  16.45$  17.28$
  Q  0.6645  11.43$  13.03$  3.35$
  Q  0.6645  10.95$  12.7$  4.79$
  Q  -1.3290  10.88$  12.79$  3.94$
  Q  0.6645  6.56$  11.87$  0$
  Q  0.6645  7.28$  12.01$  1.37$
  Q  -1.3290  7.11$  11.64$  0.6$
  Q  0.6645  6.44$  3.44$  3.98$
  Q  0.6645  5.19$  4.32$  4.37$
  Q  -1.3290  5.89$  3.86$  4.51$
  Q  0.6645  14.29$  4.19$  9.38$
  Q  0.6645  15.45$  3.29$  10.06$
  Q  -1.3290  14.77$  3.49$  9.52$
  Q  0.6645  14.96$  10.59$  4.29$
  Q  0.6645  14.72$  11.45$  5.46$
  Q  -1.3290  14.89$  10.7$  5.1$
  Q  0.6645  3.21$  4.15$  5.4$
  Q  0.6645  3.56$  5.74$  5.3$
  Q  -1.3290  3.44$  4.91$  5.02$
  Q  0.6645  13.92$  11.71$  21.07$
  Q  0.6645  14.09$  12.17$  19.68$
  Q  -1.3290  13.92$  12.28$  20.5$
  Q  0.6645  1.35$  12.01$  14.79$
  Q  0.6645  0.26$  12.55$  15.67$
  Q  -1.3290  0.89$  12.05$  15.49$
  Q  0.6645  18.03$  2.51$  8.07$
  Q  0.6645  17.05$  3.27$  7.17$
  Q  -1.3290  17.79$  3.11$  7.52$
  Q  0.6645  6.43$  17.55$  7.12$
  Q  0.6645  5.08$  17.02$  7.67$
  Q  -1.3290  5.92$  17.01$  7.56$
  Q  0.6645  16.46$  10.48$  6.23$
  Q  0.6645  17.08$  9.26$  7.01$
  Q  -1.3290  17.06$  10.08$  6.64$
  Q  0.6645  11.93$  16.12$  15.68$
  Q  0.6645  12.04$  14.81$  16.33$
  Q  -1.3290  11.87$  15.6$  16.3$
  Q  0.6645  16.73$  6.98$  7.95$
  Q  0.6645  18.23$  7.17$  8$
  Q  -1.3290  17.46$  7.39$  7.81$
  Q  0.6645  4.52$  16.68$  4.57$
  Q  0.6645  6.01$  16.4$  4.62$
  Q  -1.3290  5.3$  16.87$  4.68$
  Q  0.6645  12.55$  12.97$  6.54$
  Q  0.6645  11.18$  13.35$  7.06$
  Q  -1.3290  11.75$  12.85$  6.71$
  Q  0.6645  21.34$  14.59$  8.03$
  Q  0.6645  20.13$  13.83$  8.22$
  Q  -1.3290  20.92$  13.96$  8.32$
  Q  0.6645  13.78$  15.89$  18.69$
  Q  0.6645  12.46$  16.23$  18.03$
  Q  -1.3290  13.05$  16.31$  18.62$
  Q  0.6645  20.8$  8.33$  10.96$
  Q  0.6645  20.32$  7.67$  9.74$
  Q  -1.3290  20.71$  7.7$  10.45$
  Q  0.6645  0.72$  6.52$  13.38$
  Q  0.6645  1.2$  6.37$  14.91$
  Q  -1.3290  0.89$  6.82$  14.23$
  Q  0.6645  11.57$  15.24$  19.77$
  Q  0.6645  10.08$  15.47$  19.25$
  Q  -1.3290  10.79$  15.03$  19.43$
  Q  0.6645  4.68$  6.34$  18.35$
  Q  0.6645  4.11$  7.74$  17.73$
  Q  -1.3290  4.55$  6.98$  17.75$
  Q  0.6645  12.36$  20$  6.14$
  Q  0.6645  12.04$  21.55$  6.23$
  Q  -1.3290  12.17$  20.8$  5.83$
  Q  0.6645  14.58$  7.72$  6.9$
  Q  0.6645  14.62$  9.23$  6.53$
  Q  -1.3290  14.43$  8.54$  7.01$
  Q  0.6645  11.72$  10.48$  2.56$
  Q  0.6645  11.99$  9.29$  3.62$
  Q  -1.3290  12.03$  9.74$  2.87$
  Q  0.6645  19.18$  13.78$  15.21$
  Q  0.6645  18.34$  13.02$  14.14$
  Q  -1.3290  18.47$  13.55$  14.8$
  Q  0.6645  7.07$  8.05$  3.68$
  Q  0.6645  5.92$  8.14$  4.55$
  Q  -1.3290  6.27$  7.98$  3.82$
  Q  0.6645  17.64$  5.28$  14.39$
  Q  0.6645  16.89$  4.02$  14.13$
  Q  -1.3290  17.56$  4.48$  14.24$
  Q  0.6645  13.59$  4.59$  3.94$
  Q  0.6645  15.08$  4.96$  3.35$
  Q  -1.3290  14.2$  4.89$  3.38$
  Q  0.6645  1.55$  16.11$  11.47$
  Q  0.6645  1.03$  17.19$  10.36$
  Q  -1.3290  1.2$  16.85$  11.17$
  Q  0.6645  2.09$  11.06$  12.4$
  Q  0.6645  2.3$  12.61$  12.5$
  Q  -1.3290  2.22$  11.8$  12.8$
  Q  0.6645  18.67$  11.99$  2.58$
  Q  0.6645  17.2$  11.94$  2.7$
  Q  -1.3290  17.95$  12.28$  2.87$
  Q  0.6645  15.23$  13.46$  5.36$
  Q  0.6645  13.85$  13.92$  4.84$
  Q  -1.3290  14.38$  13.43$  5.24$
  Q  0.6645  8.1$  13.6$  2.77$
  Q  0.6645  8.81$  12.43$  3.51$
  Q  -1.3290  8.15$  12.84$  3.16$
  Q  0.6645  16.33$  13.24$  18.71$
  Q  0.6645  16.24$  13.12$  20.15$
  Q  -1.3290  16.56$  13.44$  19.48$
  Q  0.6645  19.16$  8.58$  2.72$
  Q  0.6645  17.76$  8.37$  2.4$
  Q  -1.3290  18.34$  8.65$  2.88$
  Q  0.6645  12.46$  0.91$  8.15$
  Q  0.6645  11.75$  1.99$  7.24$
  Q  -1.3290  11.92$  1.19$  7.51$
  Q  0.6645  13.7$  8.46$  2.58$
  Q  0.6645  13.84$  6.97$  2.99$
  Q  -1.3290  14.1$  7.73$  2.73$
  Q  0.6645  2.92$  14.85$  7.13$
  Q  0.6645  3.59$  14.97$  8.45$
  Q  -1.3290  3.5$  15.15$  7.66$
  Q  0.6645  16.55$  18.77$  11.75$
  Q  0.6645  17.11$  17.46$  11.5$
  Q  -1.3290  16.56$  17.96$  11.83$
  Q  0.6645  4.39$  18.33$  15.22$
  Q  0.6645  4$  19.25$  16.38$
  Q  -1.3290  4.51$  18.75$  15.92$
  Q  0.6645  11.12$  18.45$  10.63$
  Q  0.6645  12.44$  17.88$  10.02$
  Q  -1.3290  11.67$  17.87$  10.43$
  Q  0.6645  8.18$  4.1$  15.14$
  Q  0.6645  8.91$  4.77$  16.26$
  Q  -1.3290  8.69$  4.1$  15.81$
  Q  0.6645  14.72$  14.81$  2.68$
  Q  0.6645  15.19$  16.06$  3.51$
  Q  -1.3290  14.66$  15.6$  3.01$
  Q  0.6645  1.3$  8.42$  6.67$
  Q  0.6645  0.51$  7.68$  5.68$
  Q  -1.3290  0.91$  7.74$  6.37$
  Q  0.6645  12.33$  5.79$  18.34$
  Q  0.6645  11.85$  4.46$  18.56$
  Q  -1.3290  11.73$  5.27$  18.5$
  Q  0.6645  9.69$  8.55$  15.37$
  Q  0.6645  8.77$  7.65$  16.13$
  Q  -1.3290  8.97$  8.17$  15.51$
  Q  0.6645  1.19$  16.19$  7.02$
  Q  0.6645  0.3$  15.44$  5.95$
  Q  -1.3290  0.93$  15.59$  6.5$
  Q  0.6645  8.08$  15.74$  5.4$
  Q  0.6645  8.9$  15.95$  4.12$
  Q  -1.3290  8.58$  16.19$  4.87$
  Q  0.6645  5.09$  8.72$  12.93$
  Q  0.6645  3.97$  9.47$  13.53$
  Q  -1.3290  4.75$  9.23$  13.51$
  Q  0.6645  21.72$  8.68$  14.72$
  Q  0.6645  21.88$  10.13$  15.15$
  Q  -1.3290  21.46$  9.47$  14.87$
  Q  0.6645  10.87$  6.91$  0.58$
  Q  0.6645  11.41$  8.18$  1.46$
  Q  -1.3290  11.35$  7.36$  1.17$
  Q  0.6645  15.97$  4.99$  16.77$
  Q  0.6645  15.18$  4.19$  15.62$
  Q  -1.3290  15.61$  4.3$  16.39$
  Q  0.6645  2.5$  7.9$  9.45$
  Q  0.6645  0.94$  7.78$  9.79$
  Q  -1.3290  1.76$  8.06$  9.87$
  Q  0.6645  5.14$  6.61$  8.42$
  Q  0.6645  3.65$  6.13$  8.46$
  Q  -1.3290  4.29$  6.72$  8.49$
  Q  0.6645  12.57$  1.12$  12.33$
  Q  0.6645  12.45$  0.58$  10.98$
  Q  -1.3290  12.56$  1.19$  11.52$
  Q  0.6645  5.89$  14.27$  5.42$
  Q  0.6645  6.05$  15.49$  6.43$
  Q  -1.3290  6.32$  14.83$  5.97$
  Q  0.6645  7.61$  18$  5.53$
  Q  0.6645  6.87$  19.39$  5.95$
  Q  -1.3290  7.36$  18.66$  6.07$
  Q  0.6645  10.94$  13.15$  21.28$
  Q  0.6645  9.79$  12.55$  20.46$
  Q  -1.3290  10.22$  12.71$  21.18$
  Q  0.6645  12.76$  20.24$  8.87$
  Q  0.6645  14.11$  20.76$  8.93$
  Q  -1.3290  13.32$  20.79$  9.16$
  Q  0.6645  16.12$  15.34$  19.81$
  Q  0.6645  15.82$  16.77$  20.01$
  Q  -1.3290  15.71$  16.05$  19.61$
  Q  0.6645  3.13$  9.54$  19.17$
  Q  0.6645  2.98$  9.92$  17.64$
  Q  -1.3290  2.92$  9.43$  18.35$
  Q  0.6645  14.34$  16.84$  13.88$
  Q  0.6645  15.72$  16.89$  13.36$
  Q  -1.3290  15.1$  16.56$  13.8$
  Q  0.6645  12.01$  17.7$  12.55$
  Q  0.6645  11.07$  17.56$  13.66$
  Q  -1.3290  11.83$  17.55$  13.34$
  Q  0.6645  14.71$  17.4$  5.67$
  Q  0.6645  13.46$  16.8$  5.56$
  Q  -1.3290  14.05$  17.11$  6$
  Q  0.6645  5.16$  3.9$  7$
  Q  0.6645  4.11$  2.91$  6.88$
  Q  -1.3290  4.54$  3.49$  7.29$
  Q  0.6645  8.63$  6.15$  17.96$
  Q  0.6645  10.06$  6.03$  17.4$
  Q  -1.3290  9.23$  6.15$  17.33$
  Q  0.6645  14.66$  12.53$  2.4$
  Q  0.6645  15.43$  12.92$  1.13$
  Q  -1.3290  14.97$  13.06$  1.83$
  Q  0.6645  9.24$  18.17$  12$
  Q  0.6645  8.62$  17.03$  12.93$
  Q  -1.3290  9.18$  17.62$  12.67$
  Q  0.6645  4.68$  18.38$  6.16$
  Q  0.6645  4.69$  19.86$  6.68$
  Q  -1.3290  4.41$  19.05$  6.64$
  Q  0.6645  0.06$  13.63$  5.2$
  Q  0.6645  0.84$  12.36$  5.88$
  Q  -1.3290  0.47$  12.85$  5.25$
  Q  0.6645  17.22$  7.39$  10.07$
  Q  0.6645  16.87$  6.31$  11.12$
  Q  -1.3290  17.38$  6.7$  10.56$
  Q  0.6645  6.09$  10.7$  5.32$
  Q  0.6645  7.11$  11.88$  5.08$
  Q  -1.3290  6.74$  11.23$  5.51$
  Q  0.6645  3.2$  7.81$  5.71$
  Q  0.6645  4.27$  7.6$  6.67$
  Q  -1.3290  3.93$  7.52$  5.94$
  Q  0.6645  13.08$  2.39$  17.84$
  Q  0.6645  14.04$  3.53$  17.67$
  Q  -1.3290  13.42$  3.15$  18.08$
  Q  0.6645  14.24$  16.45$  9.59$
  Q  0.6645  14.71$  17.37$  10.69$
  Q  -1.3290  14.31$  17.18$  9.94$
  Q  0.6645  3.34$  2.78$  11.2$
  Q  0.6645  4.46$  1.91$  11.33$
  Q  -1.3290  4.09$  2.62$  11.46$
  Q  0.6645  3.89$  5.52$  12.29$
  Q  0.6645  4.84$  4.57$  11.54$
  Q  -1.3290  4.63$  5.27$  11.98$
  Q  0.6645  17.72$  16.52$  5.34$
  Q  0.6645  17.81$  15.12$  5.89$
  Q  -1.3290  18.08$  15.92$  5.81$
  Q  0.6645  6.06$  9.5$  15.05$
  Q  0.6645  7.59$  9.56$  15.55$
  Q  -1.3290  6.77$  9.8$  15.49$
  Q  0.6645  8.85$  7.77$  19.44$
  Q  0.6645  7.94$  6.92$  20.38$
  Q  -1.3290  8.15$  7.31$  19.66$
  Q  0.6645  5.22$  13.52$  3.76$
  Q  0.6645  4.05$  14.14$  4.6$
  Q  -1.3290  4.7$  13.62$  4.43$
  Q  0.6645  19.46$  16.67$  7.28$
  Q  0.6645  19.13$  16.73$  8.73$
  Q  -1.3290  19.63$  16.8$  8.09$
  Q  0.6645  7.63$  6.45$  13.21$
  Q  0.6645  8.52$  7.54$  13.62$
  Q  -1.3290  8.11$  7.1$  13.06$
  Q  0.6645  18.53$  17.15$  16.67$
  Q  0.6645  18.53$  16.57$  15.17$
  Q  -1.3290  18.88$  16.78$  15.95$
  Q  0.6645  11.66$  15.27$  4.73$
  Q  0.6645  11.11$  15.92$  5.91$
  Q  -1.3290  11.71$  15.57$  5.49$
  Q  0.6645  17.59$  12.8$  6.34$
  Q  0.6645  17.62$  13.2$  4.81$
  Q  -1.3290  17.39$  13.25$  5.65$
  Q  0.6645  15.51$  5.17$  7.37$
  Q  0.6645  14.54$  6.02$  8.21$
  Q  -1.3290  15.16$  5.88$  7.61$
  Q  0.6645  6.98$  14.04$  16.36$
  Q  0.6645  5.7$  13.61$  15.55$
  Q  -1.3290  6.24$  14.18$  15.93$
  Q  0.6645  11.68$  -0.22$  14.88$
  Q  0.6645  11.53$  1.39$  14.62$
  Q  -1.3290  11.91$  0.58$  14.61$
  Q  0.6645  5.63$  7.02$  11.47$
  Q  0.6645  6.87$  7.96$  11.57$
  Q  -1.3290  6.06$  7.77$  11.49$
  Q  0.6645  20.63$  14.75$  11.06$
  Q  0.6645  20.87$  16.1$  11.58$
  Q  -1.3290  20.38$  15.51$  11.34$
  Q  0.6645  14.8$  1.46$  10.74$
  Q  0.6645  15.31$  1.04$  12.08$
  Q  -1.3290  15.4$  1.26$  11.29$
  Q  0.6645  11.21$  16.83$  3$
  Q  0.6645  12.04$  15.85$  2.16$
  Q  -1.3290  11.43$  16.08$  2.68$
  Q  0.6645  8.9$  19.13$  13.76$
  Q  0.6645  9.29$  20.11$  14.89$
  Q  -1.3290  9.02$  19.89$  14.1$
  Q  0.6645  18.98$  8.87$  12.27$
  Q  0.6645  18.82$  7.32$  11.81$
  Q  -1.3290  18.9$  7.97$  12.35$
  Q  0.6645  2.62$  12.02$  16.72$
  Q  0.6645  4.07$  11.99$  16.48$
  Q  -1.3290  3.39$  11.82$  16.94$
  Q  0.6645  12.78$  19.06$  14.86$
  Q  0.6645  13.76$  19.58$  15.81$
  Q  -1.3290  13.05$  19.59$  15.4$
  Q  0.6645  1.56$  6.15$  7.82$
  Q  0.6645  2.22$  4.87$  7.53$
  Q  -1.3290  1.97$  5.48$  8.02$
  Q  0.6645  8.29$  5.33$  9.51$
  Q  0.6645  7.34$  4.55$  8.83$
  Q  -1.3290  7.75$  5.24$  8.93$
  Q  0.6645  20.94$  11.47$  4.41$
  Q  0.6645  19.73$  10.57$  4.16$
  Q  -1.3290  20.51$  10.86$  4.03$
  Q  0.6645  14.03$  9.39$  -0.29$
  Q  0.6645  13.43$  10.17$  0.96$
  Q  -1.3290  14$  9.89$  0.4$
  Q  0.6645  21.1$  14.02$  13.46$
  Q  0.6645  21.95$  14.63$  14.59$
  Q  -1.3290  21.37$  14.1$  14.26$
  Q  0.6645  15.16$  16.43$  15.73$
  Q  0.6645  14.33$  17.02$  16.93$
  Q  -1.3290  14.98$  16.71$  16.53$
  Q  0.6645  10.07$  9.05$  21.12$
  Q  0.6645  10.25$  9.47$  19.61$
  Q  -1.3290  10.32$  8.95$  20.29$
  Q  0.6645  11.39$  13.26$  18.33$
  Q  0.6645  12.41$  12.28$  17.55$
  Q  -1.3290  11.66$  12.55$  17.86$
  Q  0.6645  21.29$  11.01$  11.66$
  Q  0.6645  21.18$  10.32$  13.01$
  Q  -1.3290  20.98$  10.46$  12.2$
  Q  0.6645  10.3$  20.24$  5.1$
  Q  0.6645  9.08$  19.47$  5.56$
  Q  -1.3290  9.53$  19.91$  5$
  Q  0.6645  16.72$  7.07$  18.73$
  Q  0.6645  16.79$  5.54$  18.49$
  Q  -1.3290  16.58$  6.35$  18.3$
  Q  0.6645  19.28$  9.62$  15.16$
  Q  0.6645  18.21$  10.56$  15.8$
  Q  -1.3290  18.5$  9.96$  15.26$
  Q  0.6645  10.56$  2.17$  10.86$
  Q  0.6645  9.8$  1.44$  9.85$
  Q  -1.3290  9.87$  1.95$  10.5$
  Q  0.6645  17.1$  20.59$  13.89$
  Q  0.6645  16.73$  19.13$  13.46$
  Q  -1.3290  17.04$  19.74$  13.97$
  Q  0.6645  12.17$  4.22$  5.73$
  Q  0.6645  12.54$  2.77$  5.18$
  Q  -1.3290  12.65$  3.53$  5.55$
  Q  0.6645  10.08$  10.95$  17.96$
  Q  0.6645  10.18$  9.7$  17.11$
  Q  -1.3290  9.88$  10.17$  17.72$
  Q  0.6645  2.13$  8.61$  11.73$
  Q  0.6645  1.71$  8.61$  13.16$
  Q  -1.3290  2.13$  8.89$  12.49$
  Q  0.6645  11.28$  11.91$  0.89$
  Q  0.6645  12.57$  12.82$  1.21$
  Q  -1.3290  12.06$  12.13$  1.24$
  Q  0.6645  6.22$  9.57$  17.4$
  Q  0.6645  6.79$  8.5$  18.31$
  Q  -1.3290  6.33$  9.2$  18.15$
  Q  0.6645  5.72$  9.32$  2.46$
  Q  0.6645  6.38$  10.24$  1.41$
  Q  -1.3290  5.73$  9.76$  1.74$
  Q  0.6645  16.09$  14.85$  17.05$
  Q  0.6645  16.95$  14.02$  16.16$
  Q  -1.3290  16.38$  14.13$  16.73$
  Q  0.6645  2.52$  17.99$  14.09$
  Q  0.6645  3.2$  17.62$  12.87$
  Q  -1.3290  3.12$  17.6$  13.67$
  Q  0.6645  15.55$  10.43$  1.69$
  Q  0.6645  16.56$  9.98$  2.76$
  Q  -1.3290  15.92$  10.45$  2.44$
  Q  0.6645  18.83$  11.71$  17.59$
  Q  0.6645  18.61$  10.2$  17.76$
  Q  -1.3290  18.35$  11.01$  17.63$
  Q  0.6645  2.54$  14.48$  12.81$
  Q  0.6645  3.09$  14.19$  11.37$
  Q  -1.3290  2.48$  14.27$  11.97$
  Q  0.6645  12.75$  18.24$  7.36$
  Q  0.6645  11.35$  18.47$  7.82$
  Q  -1.3290  12.12$  18.71$  7.68$
  Q  0.6645  15.37$  0.85$  14.28$
  Q  0.6645  13.8$  0.83$  14.1$
  Q  -1.3290  14.61$  1.07$  13.92$
*
