! NoMOPrint PrintBasis #MINIPRINT SMALLPRINT LARGEPRINT
! ALLPOP XYZFILE
#! BP86 3-21G   TightSCF
! ENGRAD
! B3LYP NormalPNO PModel #DecontractAux
#! VerySlowConv 
 %maxcore 5000
 %scf  maxiter   500  end 

%pal
    nprocs 32
end

%basis
    NewGTO O    # New basis for oxygen
        "aug-cc-pVTZ"
    end
    NewGTO C    # New basis for carbon
        "aug-cc-pVTZ"
    end
    NewGTO H    # New basis for hydrogen
        "cc-pVTZ"
    end
end

* xyz 0   1
  C  9.81  10.19  12  #1
  H  9.47  9.25  11.68  #2
  H  8.9  10.82  11.88  #3
  C  11.12  10.48  11.26  #4
  H  11.38  11.53  11.47  #5
  H  11.85  9.75  11.66  #6
  C  10.97  10.29  9.76  #7
  H  10.01  10.74  9.42  #8
  H  10.7  9.24  9.48  #9
  C  12.16  10.79  8.99  #10
  H  12.31  10.27  8.04  #11
  H  12.97  10.76  9.65  #12
  O  11.82  12.19  8.83  #13
  H  12.47  12.63  8.34  #14
  O  9.99  10.14  13.48  #15
  H  9.78  11.04  13.83  #16
  O  9.89  14.42  12.4  #17
  H  10.8  14.19  12.34  #18
  H  9.71  15.4  12.31  #19
  O  11  11.79  17.19  #20
  H  11.46  11.03  16.87  #21
  H  10.68  12.21  16.37  #22
  O  13.45  14.26  7.37  #23
  H  13.71  13.48  6.86  #24
  H  12.71  14.78  6.88  #25
  O  10.79  6.53  7.99  #26
  H  11.68  6.91  8.17  #27
  H  10.23  6.84  8.69  #28
  O  9.38  13.62  9.61  #29
  H  9.49  13.94  10.5  #30
  H  10.24  13.23  9.42  #31
  O  6.43  13.06  9.67  #32
  H  7.39  13.07  9.57  #33
  H  6.18  13.98  9.46  #34
  O  9.89  7.59  5.41  #35
  H  10.11  7.35  6.27  #36
  H  9.33  6.9  5.03  #37
  O  8.96  16.8  11.47  #38
  H  8.09  16.61  11.21  #39
  H  9.35  17.29  10.67  #40
  O  14.94  12.25  6.01  #41
  H  14.6  11.51  5.54  #42
  H  15.26  12.88  5.32  #43
  O  12.14  15.15  10.45  #44
  H  12.43  14.22  10.34  #45
  H  12.2  15.37  11.4  #46
  O  15.95  14.74  8.38  #47
  H  14.99  14.92  8.13  #48
  H  16  13.83  8.72  #49
  O  5.59  11.38  11.43  #50
  H  5.93  12.07  10.8  #51
  H  6.15  11.44  12.16  #52
  O  11.99  8.86  14.78  #53
  H  12.12  9.11  15.64  #54
  H  11.34  9.52  14.41  #55
  O  9.36  4.48  6.25  #56
  H  9.9  3.88  5.62  #57
  H  9.98  4.96  6.78  #58
  O  11.14  12.86  19.9  #59
  H  12.04  12.91  20.26  #60
  H  11.09  12.25  19.18  #61
  O  13.23  7.22  8.36  #62
  H  13.82  6.53  7.97  #63
  H  13.83  7.85  8.77  #64
  O  9.37  15.7  7.68  #65
  H  9.4  16.49  8.31  #66
  H  9.38  14.86  8.15  #67
  O  8.01  9.25  16.34  #68
  H  7.1  9.13  16.26  #69
  H  8.27  9.57  15.49  #70
  O  11.97  4.41  10.23  #71
  H  11.07  4.2  10.6  #72
  H  11.94  5.27  9.72  #73
  O  11.56  16  6.15  #74
  H  11.14  15.79  5.3  #75
  H  10.87  16.14  6.84  #76
  O  9.68  12.55  14.84  #77
  H  9.76  13.2  14.1  #78
  H  8.74  12.78  15.03  #79
  O  8.85  6.89  10.51  #80
  H  8.66  7.35  11.3  #81
  H  8.67  6  10.87  #82
  O  13.39  17.17  8.38  #83
  H  12.83  17.34  7.55  #84
  H  13.07  16.34  8.79  #85
  O  7.43  7.99  8.22  #86
  H  7.14  7.17  7.82  #87
  H  7.93  7.53  8.93  #88
  O  8.53  10.92  18.44  #89
  H  8.25  10.21  17.82  #90
  H  9.29  11.3  17.91  #91
  O  12.58  13.22  12.64  #92
  H  13.44  12.76  12.41  #93
  H  12.85  13.6  13.47  #94
  O  12.46  9.14  17.53  #95
  H  12.98  9.9  17.85  #96
  H  11.68  9.1  18.12  #97
  O  13.8  11.55  18.09  #98
  H  13.23  12.17  17.64  #99
  H  14.67  11.48  17.74  #100
  Q  0.6645  10.85$  1.99$  4.42$
  Q  0.6645  11.42$  3.11$  3.68$
  Q  -1.3290  11.22$  2.72$  4.38$
  Q  0.6645  14.37$  7.92$  18.84$
  Q  0.6645  15.33$  6.73$  18.68$
  Q  -1.3290  14.94$  7.43$  18.45$
  Q  0.6645  3.27$  10.05$  7.45$
  Q  0.6645  4.08$  9.8$  8.82$
  Q  -1.3290  3.38$  9.87$  8.29$
  Q  0.6645  11.25$  17.74$  15.55$
  Q  0.6645  10.95$  18.88$  14.56$
  Q  -1.3290  11.1$  18.07$  14.8$
  Q  0.6645  11.95$  3.49$  8.45$
  Q  0.6645  12.42$  2.12$  8.12$
  Q  -1.3290  12.15$  2.87$  7.91$
  Q  0.6645  20.06$  10.18$  5.07$
  Q  0.6645  19.72$  10.76$  3.58$
  Q  -1.3290  19.72$  10.19$  4.28$
  Q  0.6645  16.65$  5.28$  4.24$
  Q  0.6645  15.8$  3.97$  4.48$
  Q  -1.3290  16.26$  4.55$  4.03$
  Q  0.6645  13.23$  8.25$  5.94$
  Q  0.6645  13.03$  9.32$  4.86$
  Q  -1.3290  13.35$  8.57$  5.17$
  Q  0.6645  3.67$  14.59$  9.07$
  Q  0.6645  3.61$  13.11$  8.41$
  Q  -1.3290  3.83$  13.96$  8.5$
  Q  0.6645  4.16$  10.48$  12.75$
  Q  0.6645  2.63$  10.05$  12.49$
  Q  -1.3290  3.46$  9.97$  12.79$
  Q  0.6645  15.32$  2.07$  6.32$
  Q  0.6645  13.98$  2.64$  5.98$
  Q  -1.3290  14.61$  2.14$  5.9$
  Q  0.6645  18.98$  7.23$  8.17$
  Q  0.6645  18.09$  7.02$  6.87$
  Q  -1.3290  18.82$  7.14$  7.32$
  Q  0.6645  17.36$  15.35$  12.11$
  Q  0.6645  18.75$  16.01$  12.55$
  Q  -1.3290  18.13$  15.42$  12.53$
  Q  0.6645  17.58$  19.58$  6.03$
  Q  0.6645  16.93$  20.73$  5.29$
  Q  -1.3290  16.99$  20.15$  5.89$
  Q  0.6645  20.29$  14.9$  8.93$
  Q  0.6645  18.99$  14.69$  8.16$
  Q  -1.3290  19.46$  14.74$  8.85$
  Q  0.6645  14.91$  17.76$  7.63$
  Q  0.6645  15.86$  18.72$  6.98$
  Q  -1.3290  15.66$  18.01$  7.38$
  Q  0.6645  7.63$  11.56$  20.29$
  Q  0.6645  7.35$  11.98$  21.77$
  Q  -1.3290  7.15$  11.71$  21$
  Q  0.6645  6.08$  8.74$  9.2$
  Q  0.6645  5.75$  9.77$  10.4$
  Q  -1.3290  5.6$  9.29$  9.72$
  Q  0.6645  10.73$  14.58$  20.48$
  Q  0.6645  9.98$  15.97$  20.77$
  Q  -1.3290  10.61$  15.39$  20.78$
  Q  0.6645  1.65$  7.93$  16.65$
  Q  0.6645  2.54$  7.99$  15.38$
  Q  -1.3290  1.98$  8.26$  15.91$
  Q  0.6645  16.47$  17.53$  11.02$
  Q  0.6645  15.42$  17.41$  12.12$
  Q  -1.3290  15.84$  17.79$  11.51$
  Q  0.6645  13.88$  11.1$  3.28$
  Q  0.6645  12.51$  11.42$  3.57$
  Q  -1.3290  13.23$  11.1$  3.76$
  Q  0.6645  5.26$  17.65$  3.87$
  Q  0.6645  6.37$  18.39$  4.48$
  Q  -1.3290  5.93$  17.7$  4.36$
  Q  0.6645  17.46$  17.9$  14.64$
  Q  0.6645  16.13$  18.67$  14.51$
  Q  -1.3290  16.65$  18.01$  14.71$
  Q  0.6645  2.67$  15.62$  15.3$
  Q  0.6645  1.4$  15.92$  15.95$
  Q  -1.3290  2.2$  16.05$  15.8$
  Q  0.6645  6.75$  12.13$  14.64$
  Q  0.6645  6.24$  13.47$  15.34$
  Q  -1.3290  6.82$  12.94$  14.96$
  Q  0.6645  5.71$  13.28$  6.21$
  Q  0.6645  6.01$  14.76$  6.01$
  Q  -1.3290  5.97$  13.96$  5.77$
  Q  0.6645  10.86$  10.67$  0.45$
  Q  0.6645  10.37$  11.57$  -0.63$
  Q  -1.3290  10.4$  11.28$  0.14$
  Q  0.6645  4.04$  8.91$  4.98$
  Q  0.6645  4.56$  10.25$  4.86$
  Q  -1.3290  4.09$  9.67$  5.22$
  Q  0.6645  4.15$  8.22$  13.69$
  Q  0.6645  4.08$  6.76$  14$
  Q  -1.3290  4.35$  7.52$  14.13$
  Q  0.6645  14.37$  4.57$  16.41$
  Q  0.6645  14.95$  3.27$  16.75$
  Q  -1.3290  14.98$  4.07$  16.6$
  Q  0.6645  13.56$  14.49$  18.59$
  Q  0.6645  14.29$  15.29$  17.54$
  Q  -1.3290  13.6$  14.89$  17.85$
  Q  0.6645  16.6$  5.59$  9.99$
  Q  0.6645  17.93$  5.3$  9.13$
  Q  -1.3290  17.09$  5.33$  9.33$
  Q  0.6645  6.32$  7.42$  13.4$
  Q  0.6645  7.86$  7.34$  13.92$
  Q  -1.3290  7.13$  7.64$  13.5$
  Q  0.6645  10.46$  7.59$  15.11$
  Q  0.6645  10.17$  6.15$  14.78$
  Q  -1.3290  9.96$  6.92$  15.01$
  Q  0.6645  11.6$  16.5$  0.43$
  Q  0.6645  12.52$  17.1$  1.61$
  Q  -1.3290  11.94$  17.12$  0.98$
  Q  0.6645  15.96$  11.3$  9.81$
  Q  0.6645  17.22$  12.11$  10.07$
  Q  -1.3290  16.4$  12$  9.92$
  Q  0.6645  9.58$  9.42$  19.29$
  Q  0.6645  9.79$  7.96$  18.8$
  Q  -1.3290  10.02$  8.74$  19.03$
  Q  0.6645  8.34$  20.26$  11.62$
  Q  0.6645  7.96$  20.8$  10.22$
  Q  -1.3290  8.46$  20.46$  10.82$
  Q  0.6645  6.63$  9.58$  13.61$
  Q  0.6645  5.55$  10.7$  14.26$
  Q  -1.3290  6.27$  10.37$  13.83$
  Q  0.6645  4.54$  3.53$  13.72$
  Q  0.6645  3.8$  4.07$  15.04$
  Q  -1.3290  3.97$  3.53$  14.37$
  Q  0.6645  10.37$  5.2$  20.55$
  Q  0.6645  10.82$  3.83$  20.36$
  Q  -1.3290  10.24$  4.4$  20.42$
  Q  0.6645  8.94$  18.26$  15.56$
  Q  0.6645  8.48$  19.48$  16.36$
  Q  -1.3290  8.39$  18.85$  15.8$
  Q  0.6645  13.57$  4.68$  21.15$
  Q  0.6645  12.49$  4.95$  20.17$
  Q  -1.3290  12.77$  4.74$  20.91$
  Q  0.6645  10.78$  16.03$  17.41$
  Q  0.6645  12.15$  16.26$  17.75$
  Q  -1.3290  11.45$  16.47$  17.44$
  Q  0.6645  3.04$  6.2$  10.23$
  Q  0.6645  4.32$  7.05$  10.4$
  Q  -1.3290  3.86$  6.34$  10.32$
  Q  0.6645  12.69$  8.76$  0.7$
  Q  0.6645  11.79$  8.39$  1.86$
  Q  -1.3290  11.98$  8.8$  1.13$
  Q  0.6645  0.93$  11.2$  15.97$
  Q  0.6645  1.71$  10.34$  15$
  Q  -1.3290  1.4$  11.03$  15.27$
  Q  0.6645  9.73$  15.64$  3.33$
  Q  0.6645  9.88$  14.22$  4.04$
  Q  -1.3290  10.14$  14.98$  3.7$
  Q  0.6645  6.06$  4.82$  12.06$
  Q  0.6645  4.79$  5.37$  11.61$
  Q  -1.3290  5.32$  5.14$  12.18$
  Q  0.6645  5.32$  17.55$  15.47$
  Q  0.6645  6.77$  17.48$  15.64$
  Q  -1.3290  6.04$  17.17$  15.46$
  Q  0.6645  14.23$  9.39$  20.56$
  Q  0.6645  15.53$  10.06$  20.1$
  Q  -1.3290  14.77$  10.03$  20.46$
  Q  0.6645  14.62$  15.05$  1.38$
  Q  0.6645  13.77$  13.78$  1.83$
  Q  -1.3290  14.42$  14.23$  1.46$
  Q  0.6645  7$  16.22$  7.23$
  Q  0.6645  6.03$  16.83$  6.17$
  Q  -1.3290  6.25$  16.42$  6.88$
  Q  0.6645  6.21$  0.55$  8.69$
  Q  0.6645  7.58$  1.06$  9.09$
  Q  -1.3290  6.92$  0.57$  9.19$
  Q  0.6645  5.47$  6.18$  15.83$
  Q  0.6645  4.92$  5.75$  17.24$
  Q  -1.3290  5.28$  5.65$  16.48$
  Q  0.6645  11.44$  13.95$  2.51$
  Q  0.6645  11.44$  12.79$  1.6$
  Q  -1.3290  11.71$  13.22$  2.23$
  Q  0.6645  3.24$  17.33$  10.51$
  Q  0.6645  3.78$  17.82$  11.74$
  Q  -1.3290  3.15$  17.57$  11.29$
  Q  0.6645  8.79$  18.75$  9.15$
  Q  0.6645  10.26$  18.67$  8.67$
  Q  -1.3290  9.52$  18.35$  8.99$
  Q  0.6645  18.82$  12.85$  5.11$
  Q  0.6645  19.78$  14.04$  5.14$
  Q  -1.3290  19.16$  13.56$  4.81$
  Q  0.6645  3.04$  3.43$  10.02$
  Q  0.6645  4.12$  2.55$  10.47$
  Q  -1.3290  3.62$  2.88$  9.9$
  Q  0.6645  12.94$  17.6$  12.01$
  Q  0.6645  12.77$  17.15$  13.47$
  Q  -1.3290  13.01$  17.09$  12.69$
  Q  0.6645  7.63$  13.18$  4.9$
  Q  0.6645  8.49$  11.97$  4.46$
  Q  -1.3290  8.2$  12.75$  4.4$
  Q  0.6645  15.37$  12.67$  12.96$
  Q  0.6645  15.41$  12.38$  11.5$
  Q  -1.3290  15.19$  12.22$  12.27$
  Q  0.6645  6.35$  13.39$  17.32$
  Q  0.6645  7.64$  12.68$  17.81$
  Q  -1.3290  7.13$  13.35$  17.65$
  Q  0.6645  18.43$  10.78$  15.3$
  Q  0.6645  18.53$  9.56$  16.11$
  Q  -1.3290  18.14$  10.08$  15.58$
  Q  0.6645  15.09$  10.17$  12.48$
  Q  0.6645  14.87$  8.75$  12.86$
  Q  -1.3290  15.16$  9.36$  12.38$
  Q  0.6645  4.76$  6.03$  4.38$
  Q  0.6645  3.7$  6.95$  3.63$
  Q  -1.3290  4.26$  6.74$  4.26$
  Q  0.6645  11.61$  4.85$  17.99$
  Q  0.6645  12.82$  5.81$  17.92$
  Q  -1.3290  12.11$  5.47$  18.26$
  Q  0.6645  8.26$  18.33$  12.99$
  Q  0.6645  7.76$  19.3$  13.94$
  Q  -1.3290  7.84$  19.01$  13.16$
  Q  0.6645  16.68$  7.57$  4.54$
  Q  0.6645  17.86$  7.06$  4.91$
  Q  -1.3290  17.09$  7.03$  4.97$
  Q  0.6645  3.85$  6.03$  7.57$
  Q  0.6645  3.38$  6.45$  6.24$
  Q  -1.3290  3.26$  6.1$  6.99$
  Q  0.6645  20.47$  15.24$  10.83$
  Q  0.6645  21.89$  14.9$  11.17$
  Q  -1.3290  21.25$  15.4$  11.06$
  Q  0.6645  15.71$  15.03$  10.45$
  Q  0.6645  15.02$  15.18$  11.9$
  Q  -1.3290  15.64$  15.14$  11.3$
  Q  0.6645  12.1$  5.51$  2.39$
  Q  0.6645  12.34$  4.57$  1.11$
  Q  -1.3290  12.01$  4.81$  1.86$
  Q  0.6645  17.37$  11.62$  17.59$
  Q  0.6645  17.91$  12.99$  17.34$
  Q  -1.3290  17.31$  12.45$  17.41$
  Q  0.6645  4.24$  17.92$  8.65$
  Q  0.6645  4.37$  16.53$  8.24$
  Q  -1.3290  4.06$  17.11$  8.71$
  Q  0.6645  2.83$  15.69$  12.98$
  Q  0.6645  3.81$  14.56$  13.34$
  Q  -1.3290  3.05$  14.91$  13.22$
  Q  0.6645  13.12$  4.28$  14.99$
  Q  0.6645  13.1$  5.83$  14.73$
  Q  -1.3290  12.93$  5.08$  15.12$
  Q  0.6645  12.4$  19.26$  8.68$
  Q  0.6645  11.93$  20.54$  7.97$
  Q  -1.3290  11.97$  19.71$  8.1$
  Q  0.6645  18.79$  18.78$  12.18$
  Q  0.6645  17.71$  17.91$  12.55$
  Q  -1.3290  18.46$  18.18$  12.61$
  Q  0.6645  12.79$  2.5$  17.7$
  Q  0.6645  11.44$  2.15$  18.08$
  Q  -1.3290  12.01$  2.65$  17.77$
  Q  0.6645  6.27$  18.76$  12.61$
  Q  0.6645  5.16$  19.71$  12.11$
  Q  -1.3290  5.45$  18.98$  12.43$
  Q  0.6645  12.8$  7.44$  3.82$
  Q  0.6645  11.33$  7.17$  3.81$
  Q  -1.3290  12.06$  7.22$  3.45$
  Q  0.6645  3.31$  16.48$  17.36$
  Q  0.6645  4.38$  17.23$  18.09$
  Q  -1.3290  3.9$  16.56$  17.97$
  Q  0.6645  1.89$  11.33$  8.92$
  Q  0.6645  1.57$  12.67$  9.42$
  Q  -1.3290  1.69$  12.12$  8.79$
  Q  0.6645  17.92$  15.05$  5.82$
  Q  0.6645  17.24$  14.99$  7.28$
  Q  -1.3290  17.82$  15.23$  6.67$
  Q  0.6645  7.82$  3.83$  10.35$
  Q  0.6645  8.32$  4.14$  11.78$
  Q  -1.3290  7.89$  4.25$  11.06$
  Q  0.6645  6.17$  8.51$  20.79$
  Q  0.6645  6.07$  9.98$  21.1$
  Q  -1.3290  6.05$  9.18$  21.26$
  Q  0.6645  1.87$  10.52$  3.41$
  Q  0.6645  2.26$  10.18$  4.93$
  Q  -1.3290  1.76$  10.39$  4.26$
  Q  0.6645  5.52$  5.37$  8.87$
  Q  0.6645  5.87$  4.62$  7.59$
  Q  -1.3290  5.76$  5.3$  8.09$
  Q  0.6645  15.73$  15.68$  4.7$
  Q  0.6645  16.01$  16.91$  5.61$
  Q  -1.3290  15.74$  16.53$  4.9$
  Q  0.6645  15.11$  19.77$  13.03$
  Q  0.6645  14.83$  20.89$  13.94$
  Q  -1.3290  15.29$  20.24$  13.66$
  Q  0.6645  8.2$  16.73$  18.2$
  Q  0.6645  8.07$  15.21$  17.66$
  Q  -1.3290  8.46$  15.95$  17.88$
  Q  0.6645  4.57$  9.7$  16.58$
  Q  0.6645  5.11$  10.09$  17.88$
  Q  -1.3290  4.97$  9.55$  17.29$
  Q  0.6645  13.93$  13.46$  21.75$
  Q  0.6645  14.09$  12.18$  20.82$
  Q  -1.3290  13.74$  12.9$  21.1$
  Q  0.6645  7.91$  16.65$  2.6$
  Q  0.6645  9$  16.74$  1.53$
  Q  -1.3290  8.67$  16.86$  2.33$
  Q  0.6645  18.34$  20.11$  10.33$
  Q  0.6645  18.47$  18.85$  9.32$
  Q  -1.3290  18.75$  19.43$  9.97$
  Q  0.6645  7.86$  3.59$  17.49$
  Q  0.6645  7.17$  4.63$  16.62$
  Q  -1.3290  7.83$  4.3$  17.02$
  Q  0.6645  13.11$  2.63$  13.23$
  Q  0.6645  14.47$  3.08$  13.71$
  Q  -1.3290  13.68$  2.79$  13.82$
  Q  0.6645  16.1$  9.03$  15.82$
  Q  0.6645  15.4$  7.9$  16.64$
  Q  -1.3290  15.75$  8.26$  15.94$
  Q  0.6645  15.05$  8.94$  4.08$
  Q  0.6645  15.62$  9.24$  2.73$
  Q  -1.3290  15.64$  8.92$  3.51$
  Q  0.6645  9.32$  4.09$  15.69$
  Q  0.6645  10.97$  4.18$  15.49$
  Q  -1.3290  10.13$  3.97$  15.32$
  Q  0.6645  6.35$  1.13$  11.06$
  Q  0.6645  5.94$  1.6$  12.51$
  Q  -1.3290  5.88$  1.51$  11.66$
  Q  0.6645  10.16$  3.52$  13.39$
  Q  0.6645  10.79$  3.06$  12.05$
  Q  -1.3290  10.24$  3.46$  12.55$
  Q  0.6645  7.79$  1.34$  14.19$
  Q  0.6645  6.6$  1.83$  15.07$
  Q  -1.3290  7$  1.63$  14.35$
  Q  0.6645  5.05$  12.32$  19.41$
  Q  0.6645  3.92$  12.69$  18.43$
  Q  -1.3290  4.64$  12.25$  18.67$
  Q  0.6645  13.63$  18.21$  10.33$
  Q  0.6645  13.64$  19.55$  10.77$
  Q  -1.3290  13.24$  18.87$  10.6$
  Q  0.6645  4.4$  12.54$  15.52$
  Q  0.6645  3.32$  11.49$  15.39$
  Q  -1.3290  4.1$  11.78$  15.4$
  Q  0.6645  16.79$  4.77$  14.01$
  Q  0.6645  16.27$  3.87$  15.16$
  Q  -1.3290  16.5$  4.05$  14.37$
  Q  0.6645  17.98$  16.06$  1.99$
  Q  0.6645  16.64$  15.58$  1.39$
  Q  -1.3290  17.46$  15.52$  1.6$
  Q  0.6645  19.13$  8.49$  12.68$
  Q  0.6645  19.9$  7.34$  11.89$
  Q  -1.3290  19.58$  7.77$  12.58$
  Q  0.6645  14.7$  10.53$  0.7$
  Q  0.6645  16.03$  10.98$  1.29$
  Q  -1.3290  15.26$  10.65$  1.31$
  Q  0.6645  15.9$  13.82$  3.22$
  Q  0.6645  17.28$  14.1$  3.85$
  Q  -1.3290  16.4$  14.03$  3.86$
  Q  0.6645  5.84$  4.3$  2.77$
  Q  0.6645  6.64$  5.44$  3.4$
  Q  -1.3290  5.96$  4.92$  3.33$
  Q  0.6645  8.85$  11.91$  1.32$
  Q  0.6645  8.12$  12.44$  2.58$
  Q  -1.3290  8.17$  12.17$  1.77$
  Q  0.6645  16.59$  14.26$  14.76$
  Q  0.6645  16.12$  12.94$  15.33$
  Q  -1.3290  16.16$  13.55$  14.74$
  Q  0.6645  18.18$  10.47$  13.08$
  Q  0.6645  17.04$  9.64$  12.51$
  Q  -1.3290  17.81$  9.96$  12.53$
  Q  0.6645  18.35$  11.77$  1.54$
  Q  0.6645  17.62$  12.25$  0.31$
  Q  -1.3290  17.81$  11.7$  0.89$
  Q  0.6645  17.48$  9.57$  19.51$
  Q  0.6645  16.28$  9.18$  18.61$
  Q  -1.3290  16.85$  9.73$  18.98$
  Q  0.6645  8.41$  7.01$  2.84$
  Q  0.6645  8.79$  5.55$  2.63$
  Q  -1.3290  8.55$  6.21$  3.08$
  Q  0.6645  6.36$  11.52$  3.5$
  Q  0.6645  6.66$  10.87$  4.88$
  Q  -1.3290  6.31$  10.93$  4.11$
  Q  0.6645  18.77$  12.76$  13.54$
  Q  0.6645  20.15$  12.14$  13.78$
  Q  -1.3290  19.32$  12.17$  13.77$
  Q  0.6645  11.24$  19.43$  19.36$
  Q  0.6645  11.3$  18.56$  18.19$
  Q  -1.3290  11.12$  19.27$  18.54$
  Q  0.6645  22.01$  13.76$  13.91$
  Q  0.6645  22.42$  12.34$  14.21$
  Q  -1.3290  21.95$  12.95$  13.85$
  Q  0.6645  20.02$  4.06$  9.44$
  Q  0.6645  19.33$  4.78$  10.66$
  Q  -1.3290  19.7$  4.72$  9.89$
  Q  0.6645  8.7$  10.54$  6.44$
  Q  0.6645  9.04$  9.55$  5.38$
  Q  -1.3290  8.81$  10.31$  5.66$
  Q  0.6645  10.27$  20.71$  10.57$
  Q  0.6645  11.81$  20.32$  10.67$
  Q  -1.3290  11.11$  20.81$  10.79$
  Q  0.6645  15.6$  5.25$  7.69$
  Q  0.6645  15.51$  6.07$  6.35$
  Q  -1.3290  15.21$  5.57$  7$
  Q  0.6645  13.24$  7.96$  14.16$
  Q  0.6645  14.63$  7.57$  14.5$
  Q  -1.3290  13.95$  7.56$  14.02$
  Q  0.6645  20.76$  9.62$  9.06$
  Q  0.6645  20.04$  10.65$  10.04$
  Q  -1.3290  20.51$  9.94$  9.82$
  Q  0.6645  5.22$  6.95$  19.17$
  Q  0.6645  4.55$  7.79$  18.11$
  Q  -1.3290  4.57$  7.23$  18.71$
  Q  0.6645  16.21$  8.48$  9.14$
  Q  0.6645  15.28$  8.93$  10.29$
  Q  -1.3290  15.53$  8.83$  9.48$
  Q  0.6645  2.19$  6.82$  12.37$
  Q  0.6645  2.3$  5.32$  12.82$
  Q  -1.3290  2.24$  6.17$  12.91$
  Q  0.6645  5.53$  16.56$  10.08$
  Q  0.6645  5.96$  15.57$  11.09$
  Q  -1.3290  6.1$  16.04$  10.42$
  Q  0.6645  7.3$  6.9$  19.24$
  Q  0.6645  6.98$  6.13$  20.56$
  Q  -1.3290  6.81$  6.71$  19.93$
  Q  0.6645  9.8$  0.18$  14.54$
  Q  0.6645  10.19$  1.61$  15.1$
  Q  -1.3290  9.68$  0.99$  14.79$
  Q  0.6645  11.64$  0.7$  11.5$
  Q  0.6645  12.83$  1.66$  11.2$
  Q  -1.3290  12.08$  1.43$  11.5$
  Q  0.6645  6.3$  3.89$  4.98$
  Q  0.6645  7.7$  4.08$  5.79$
  Q  -1.3290  6.85$  3.79$  5.65$
  Q  0.6645  15.24$  6.93$  1.95$
  Q  0.6645  16.4$  7.37$  1.02$
  Q  -1.3290  15.62$  7.1$  1.2$
  Q  0.6645  0.06$  9.78$  11.37$
  Q  0.6645  0.02$  9.38$  12.86$
  Q  -1.3290  0.38$  9.61$  12.16$
  Q  0.6645  12.34$  19.96$  5.74$
  Q  0.6645  11.43$  21.33$  5.78$
  Q  -1.3290  11.91$  20.66$  5.41$
  Q  0.6645  19.2$  8.84$  9.66$
  Q  0.6645  18.41$  8.23$  10.63$
  Q  -1.3290  18.64$  8.3$  9.88$
  Q  0.6645  1.98$  8.19$  8.68$
  Q  0.6645  2.01$  6.79$  8.2$
  Q  -1.3290  1.84$  7.41$  8.74$
  Q  0.6645  6.94$  9.09$  3.14$
  Q  0.6645  7.6$  8.98$  1.67$
  Q  -1.3290  7.48$  8.76$  2.5$
  Q  0.6645  9.76$  2.39$  8.98$
  Q  0.6645  8.71$  3.14$  8.1$
  Q  -1.3290  9.03$  2.81$  8.81$
  Q  0.6645  17.37$  7.11$  15.45$
  Q  0.6645  18.67$  7.08$  14.72$
  Q  -1.3290  17.99$  6.74$  15.05$
  Q  0.6645  12.01$  16.42$  20.28$
  Q  0.6645  13.58$  16.4$  20.03$
  Q  -1.3290  12.78$  16.72$  20.04$
  Q  0.6645  14.75$  19.93$  4.08$
  Q  0.6645  14.1$  20.75$  3.04$
  Q  -1.3290  14.76$  20.43$  3.4$
  Q  0.6645  17.23$  5.02$  12.12$
  Q  0.6645  17.51$  6.4$  13.03$
  Q  -1.3290  17.09$  5.85$  12.51$
  Q  0.6645  2.05$  13.92$  18.76$
  Q  0.6645  1.54$  12.83$  17.81$
  Q  -1.3290  2.11$  13.35$  18.15$
  Q  0.6645  13.64$  4.7$  11.19$
  Q  0.6645  14.92$  5.31$  11.93$
  Q  -1.3290  14.45$  4.73$  11.51$
  Q  0.6645  1.97$  14.02$  6.02$
  Q  0.6645  3.18$  14.46$  6.61$
  Q  -1.3290  2.6$  14.5$  6.02$
  Q  0.6645  5.82$  16.1$  13.6$
  Q  0.6645  6.3$  14.61$  13.71$
  Q  -1.3290  5.89$  15.26$  13.37$
  Q  0.6645  10.45$  19.76$  3.73$
  Q  0.6645  9.87$  18.73$  2.65$
  Q  -1.3290  9.93$  19.47$  3.1$
  Q  0.6645  5.01$  15.07$  16.54$
  Q  0.6645  4.09$  14$  16.86$
  Q  -1.3290  4.67$  14.33$  16.41$
  Q  0.6645  8.69$  7.25$  17$
  Q  0.6645  8.54$  6$  17.85$
  Q  -1.3290  8.66$  6.83$  17.74$
  Q  0.6645  13.13$  14.49$  16.03$
  Q  0.6645  14.34$  14.68$  15.1$
  Q  -1.3290  13.53$  14.53$  15.3$
  Q  0.6645  19.14$  13$  10.19$
  Q  0.6645  19.06$  12.24$  11.49$
  Q  -1.3290  19.1$  12.33$  10.65$
  Q  0.6645  10.72$  1.67$  6.6$
  Q  0.6645  9.39$  0.83$  6.17$
  Q  -1.3290  10.28$  0.96$  6.37$
  Q  0.6645  17.04$  17.31$  8.54$
  Q  0.6645  18.08$  16.27$  9.15$
  Q  -1.3290  17.69$  17.04$  9.05$
  Q  0.6645  20.53$  8.43$  7.16$
  Q  0.6645  21.98$  8.11$  7.6$
  Q  -1.3290  21.32$  8.61$  7.39$
  Q  0.6645  19.34$  18.33$  5.8$
  Q  0.6645  18.4$  17.11$  6.22$
  Q  -1.3290  18.67$  17.8$  5.74$
  Q  0.6645  15.96$  16.7$  16.39$
  Q  0.6645  16.23$  16.06$  17.72$
  Q  -1.3290  15.95$  16.09$  16.92$
  Q  0.6645  12.68$  17.58$  5.26$
  Q  0.6645  14.18$  17.65$  4.99$
  Q  -1.3290  13.41$  17.95$  5.16$
  Q  0.6645  15.59$  20.83$  10.03$
  Q  0.6645  15.02$  21.8$  10.96$
  Q  -1.3290  15.04$  21.08$  10.58$
  Q  0.6645  10.33$  7.67$  0.18$
  Q  0.6645  10.36$  6.42$  0.93$
  Q  -1.3290  10.06$  6.93$  0.38$
  Q  0.6645  15.13$  16.73$  2.91$
  Q  0.6645  15$  17.53$  1.52$
  Q  -1.3290  14.87$  16.9$  2.11$
  Q  0.6645  17.98$  2.66$  11.2$
  Q  0.6645  18.32$  3.16$  12.57$
  Q  -1.3290  18.18$  3.26$  11.76$
  Q  0.6645  6.13$  11.92$  8.03$
  Q  0.6645  5.74$  10.58$  7.63$
  Q  -1.3290  5.94$  11.34$  7.47$
  Q  0.6645  18$  10.61$  5.5$
  Q  0.6645  16.98$  11.63$  6.07$
  Q  -1.3290  17.74$  11.28$  5.97$
  Q  0.6645  4.86$  15.34$  19.28$
  Q  0.6645  6.09$  14.51$  19.49$
  Q  -1.3290  5.36$  14.85$  19.73$
  Q  0.6645  14.48$  7.19$  21.56$
  Q  0.6645  13.01$  7.02$  20.92$
  Q  -1.3290  13.73$  7.43$  21.15$
  Q  0.6645  1.94$  13.83$  11.91$
  Q  0.6645  0.68$  13$  11.96$
  Q  -1.3290  1.28$  13.46$  11.57$
  Q  0.6645  5.26$  14.35$  3.88$
  Q  0.6645  4.18$  14.94$  2.95$
  Q  -1.3290  4.93$  14.61$  3.12$
  Q  0.6645  14.53$  2.98$  10.71$
  Q  0.6645  14.08$  1.98$  9.65$
  Q  -1.3290  14.43$  2.2$  10.37$
*
