! NoMOPrint PrintBasis #MINIPRINT SMALLPRINT LARGEPRINT
! ALLPOP XYZFILE
#! BP86 3-21G   TightSCF
! ENGRAD
! B3LYP NormalPNO PModel #DecontractAux
#! VerySlowConv 
 %maxcore 5000
 %scf  maxiter   500  end 

%pal
    nprocs 32
end

%basis
    NewGTO O    # New basis for oxygen
        "aug-cc-pVTZ"
    end
    NewGTO C    # New basis for carbon
        "aug-cc-pVTZ"
    end
    NewGTO H    # New basis for hydrogen
        "cc-pVTZ"
    end
end

* xyz 0   1
  C  9.8  10.63  9.77  #1
  H  8.96  11.12  9.35  #2
  H  9.71  10.45  10.81  #3
  C  11.1  11.28  9.56  #4
  H  11.89  10.54  9.56  #5
  H  11.22  11.75  8.62  #6
  C  11.44  12.24  10.67  #7
  H  10.66  12.94  10.93  #8
  H  12.34  12.83  10.33  #9
  C  11.88  11.5  11.9  #10
  H  12.9  11.23  11.71  #11
  H  11.3  10.57  12.05  #12
  O  11.89  12.29  13.07  #13
  H  10.94  12.57  13.25  #14
  O  9.89  9.39  9.13  #15
  H  9.09  8.92  9.11  #16
  O  7.55  9.88  12.45  #17
  H  8.12  10.62  12.68  #18
  H  8.17  9.16  12.36  #19
  O  12.3  16.11  10.29  #20
  H  12.77  16.87  10.53  #21
  H  12.96  15.41  10.63  #22
  O  13.46  8.27  10.23  #23
  H  12.54  7.94  10.32  #24
  H  13.88  7.57  9.83  #25
  O  14.36  14.36  11.64  #26
  H  14.66  13.46  11.48  #27
  H  13.93  14.51  12.52  #28
  O  9.92  16  12  #29
  H  9.24  15.36  11.95  #30
  H  10.69  15.74  11.4  #31
  O  5.49  11.28  10.92  #32
  H  4.78  11.04  11.49  #33
  H  6.35  11.07  11.39  #34
  O  15.12  5.89  9.41  #35
  H  14.52  5.25  9.79  #36
  H  15.71  5.32  8.89  #37
  O  8.67  12.62  12.9  #38
  H  8.14  13.42  12.78  #39
  H  8.74  12.61  13.89  #40
  O  6.7  10.85  8.35  #41
  H  5.92  10.88  7.8  #42
  H  6.4  10.97  9.29  #43
  O  8.38  12.71  7.13  #44
  H  8.06  12.81  6.25  #45
  H  7.86  11.93  7.49  #46
  O  15  11.63  10.63  #47
  H  14.56  11.6  9.72  #48
  H  15.62  10.94  10.67  #49
  O  8.14  17.79  13.59  #50
  H  8.19  17.15  12.88  #51
  H  7.77  17.32  14.37  #52
  O  12.6  13.3  5.77  #53
  H  12.32  14.24  5.96  #54
  H  13.05  12.86  6.52  #55
  O  13.88  12.61  14.83  #56
  H  13.09  12.23  14.42  #57
  H  13.72  12.54  15.78  #58
  O  14.21  12.31  7.84  #59
  H  15.07  12.22  7.39  #60
  H  14.29  13.17  8.24  #61
  O  12.01  15.79  7.06  #62
  H  12.01  16.75  6.95  #63
  H  12.59  15.75  7.88  #64
  O  11.34  17.02  14.34  #65
  H  10.68  16.77  13.64  #66
  H  12.07  17.21  13.77  #67
  O  9.03  7.74  12.4  #68
  H  9.76  7.82  13.01  #69
  H  8.41  7.07  12.85  #70
  O  5.46  7.83  11.75  #71
  H  6.31  8.34  11.64  #72
  H  5.52  7.34  12.58  #73
  O  10.72  9.04  6.54  #74
  H  10.64  9.26  7.48  #75
  H  11.34  8.33  6.38  #76
  O  9.72  18.05  9.66  #77
  H  9.84  17.21  10.13  #78
  H  8.97  17.93  9.14  #79
  O  13.62  17.79  12.21  #80
  H  13.45  18.71  12.44  #81
  H  14.57  17.67  12.41  #82
  O  10.8  6.51  10.66  #83
  H  10.73  6.73  9.75  #84
  H  10.02  7  11.17  #85
  O  11.3  7.92  14.08  #86
  H  11.29  8.84  14.38  #87
  H  12.2  7.85  13.66  #88
  O  7.45  7.8  8.22  #89
  H  7.7  6.99  7.74  #90
  H  7.69  8.56  7.7  #91
  O  7.2  15.09  12.23  #92
  H  6.68  15.33  11.38  #93
  H  6.65  15.3  13.01  #94
  O  6.25  9.76  14.85  #95
  H  6.94  9.33  15.36  #96
  H  6.41  9.59  13.87  #97
  O  13.15  7.23  7.09  #98
  H  13.93  7.7  7.47  #99
  H  12.72  6.77  7.78  #100
  O  13.84  7.74  13  #101
  H  14.68  7.31  12.8  #102
  H  13.65  8.28  12.17  #103
  Q  0.6645  19.4$  11.97$  8.6$
  Q  0.6645  20.67$  12.2$  9.37$
  Q  -1.3290  20.08$  12.41$  8.81$
  Q  0.6645  3.6$  8.71$  5.81$
  Q  0.6645  4.96$  9.13$  5.28$
  Q  -1.3290  4.39$  8.57$  5.52$
  Q  0.6645  9.08$  16.26$  20.91$
  Q  0.6645  7.65$  16.67$  20.29$
  Q  -1.3290  8.48$  16.43$  20.31$
  Q  0.6645  16.27$  10.23$  3.96$
  Q  0.6645  14.8$  9.93$  3.91$
  Q  -1.3290  15.48$  10.26$  4.24$
  Q  0.6645  11.18$  19.46$  4.47$
  Q  0.6645  11.98$  18.3$  3.87$
  Q  -1.3290  11.27$  18.72$  4.07$
  Q  0.6645  13.38$  7.77$  3.84$
  Q  0.6645  13.39$  6.98$  5.26$
  Q  -1.3290  13.33$  7.09$  4.39$
  Q  0.6645  19.76$  7.63$  14.79$
  Q  0.6645  18.83$  8.69$  14.13$
  Q  -1.3290  19.4$  8.39$  14.68$
  Q  0.6645  8.17$  15.1$  2.19$
  Q  0.6645  9.11$  15.44$  3.3$
  Q  -1.3290  8.82$  14.94$  2.69$
  Q  0.6645  3.95$  3.5$  13.72$
  Q  0.6645  4.23$  4.42$  12.51$
  Q  -1.3290  4.01$  4.23$  13.32$
  Q  0.6645  1.73$  8.67$  7.51$
  Q  0.6645  1.49$  9.22$  6$
  Q  -1.3290  1.85$  8.75$  6.64$
  Q  0.6645  17.9$  10.55$  6.9$
  Q  0.6645  19.11$  10.52$  6.19$
  Q  -1.3290  18.68$  10.41$  6.83$
  Q  0.6645  16.54$  9.84$  8.58$
  Q  0.6645  17.8$  10.24$  9.34$
  Q  -1.3290  17.03$  9.91$  9.26$
  Q  0.6645  6.42$  13.79$  16.79$
  Q  0.6645  5.74$  14.48$  15.72$
  Q  -1.3290  6$  14.41$  16.51$
  Q  0.6645  5.17$  1.23$  10.9$
  Q  0.6645  6.3$  2.28$  10.9$
  Q  -1.3290  5.62$  1.9$  10.6$
  Q  0.6645  21.51$  10.97$  13.37$
  Q  0.6645  20.75$  9.86$  14.35$
  Q  -1.3290  21.3$  10.51$  14.12$
  Q  0.6645  4.07$  7.24$  4.08$
  Q  0.6645  4.2$  6.81$  2.57$
  Q  -1.3290  3.83$  6.86$  3.33$
  Q  0.6645  0.84$  6.19$  13.4$
  Q  0.6645  2.33$  5.85$  13.71$
  Q  -1.3290  1.68$  6.36$  13.51$
  Q  0.6645  14.99$  11.65$  1.66$
  Q  0.6645  15.02$  10.97$  0.24$
  Q  -1.3290  14.67$  11.25$  0.98$
  Q  0.6645  8.57$  12.26$  16.39$
  Q  0.6645  9.57$  13.45$  16.05$
  Q  -1.3290  9.11$  12.73$  15.91$
  Q  0.6645  20.13$  7.7$  9.18$
  Q  0.6645  20.01$  7.44$  10.66$
  Q  -1.3290  20.39$  7.76$  9.97$
  Q  0.6645  6.37$  16.93$  9.27$
  Q  0.6645  5.45$  17.36$  10.37$
  Q  -1.3290  5.91$  16.8$  9.95$
  Q  0.6645  17.02$  14.93$  10.07$
  Q  0.6645  17.07$  16.36$  9.53$
  Q  -1.3290  16.99$  15.76$  10.14$
  Q  0.6645  16.78$  17.69$  12.32$
  Q  0.6645  16.24$  16.34$  12.06$
  Q  -1.3290  16.37$  17$  12.53$
  Q  0.6645  4.42$  8.86$  8.55$
  Q  0.6645  4.51$  9.86$  9.71$
  Q  -1.3290  4.26$  9.59$  8.95$
  Q  0.6645  14.18$  10.39$  17.93$
  Q  0.6645  12.9$  10.71$  18.68$
  Q  -1.3290  13.58$  10.89$  18.22$
  Q  0.6645  17.57$  13.83$  3.19$
  Q  0.6645  16.07$  13.95$  3.15$
  Q  -1.3290  16.85$  13.98$  2.84$
  Q  0.6645  12.54$  13.73$  1.18$
  Q  0.6645  13.24$  12.48$  0.72$
  Q  -1.3290  12.96$  13.28$  0.62$
  Q  0.6645  3.41$  4.7$  10.21$
  Q  0.6645  4.47$  3.56$  10.48$
  Q  -1.3290  4.18$  4.36$  10.53$
  Q  0.6645  11.76$  8.93$  19.36$
  Q  0.6645  11.37$  9.58$  20.56$
  Q  -1.3290  11.56$  9.58$  19.76$
  Q  0.6645  5.98$  11.27$  1.41$
  Q  0.6645  5.5$  10.48$  2.63$
  Q  -1.3290  5.4$  10.89$  1.9$
  Q  0.6645  5.56$  18.94$  8.45$
  Q  0.6645  5.93$  20.37$  8.71$
  Q  -1.3290  5.41$  19.72$  8.73$
  Q  0.6645  15.6$  19.93$  11.59$
  Q  0.6645  16.65$  20.09$  10.43$
  Q  -1.3290  16.22$  19.69$  11.06$
  Q  0.6645  17.6$  7.78$  3.72$
  Q  0.6645  16.95$  6.4$  3.85$
  Q  -1.3290  17.55$  6.95$  3.95$
  Q  0.6645  16.65$  6.96$  14.45$
  Q  0.6645  16.07$  5.72$  13.75$
  Q  -1.3290  16.34$  6.51$  13.8$
  Q  0.6645  7$  5.21$  3.98$
  Q  0.6645  6.86$  6.68$  4.2$
  Q  -1.3290  7.15$  5.91$  4.4$
  Q  0.6645  7.39$  12.62$  18.56$
  Q  0.6645  6.64$  11.34$  17.99$
  Q  -1.3290  7.25$  11.96$  18.03$
  Q  0.6645  17.12$  8.78$  12.46$
  Q  0.6645  17.81$  9.94$  12.07$
  Q  -1.3290  17.31$  9.54$  12.57$
  Q  0.6645  2.62$  16.53$  6.35$
  Q  0.6645  1.21$  17.19$  6$
  Q  -1.3290  1.96$  17.1$  6.42$
  Q  0.6645  2.73$  13.31$  4.44$
  Q  0.6645  1.27$  13.69$  4.72$
  Q  -1.3290  1.94$  13.2$  4.77$
  Q  0.6645  5.41$  18.67$  14.67$
  Q  0.6645  4.93$  18.54$  13.22$
  Q  -1.3290  4.92$  18.41$  14.03$
  Q  0.6645  9.78$  3.09$  8.33$
  Q  0.6645  9.99$  3.59$  9.79$
  Q  -1.3290  10.2$  3.15$  9.09$
  Q  0.6645  16.36$  8.35$  6.78$
  Q  0.6645  15.88$  9.68$  6.07$
  Q  -1.3290  16.01$  9.14$  6.74$
  Q  0.6645  18.54$  18.63$  17.21$
  Q  0.6645  18.24$  17.13$  17.15$
  Q  -1.3290  18.07$  17.92$  17.37$
  Q  0.6645  11.53$  13.04$  20.96$
  Q  0.6645  10.89$  11.82$  20.23$
  Q  -1.3290  10.94$  12.61$  20.54$
  Q  0.6645  16.49$  11.22$  13.42$
  Q  0.6645  15.6$  12.26$  14.42$
  Q  -1.3290  16.27$  11.97$  13.9$
  Q  0.6645  11.47$  15.7$  1.61$
  Q  0.6645  11.02$  14.84$  2.85$
  Q  -1.3290  11.57$  15.16$  2.26$
  Q  0.6645  2.95$  9.84$  12.49$
  Q  0.6645  3.26$  10.97$  13.5$
  Q  -1.3290  3.17$  10.62$  12.74$
  Q  0.6645  15.67$  15.35$  17.26$
  Q  0.6645  16$  14.8$  18.63$
  Q  -1.3290  15.51$  15.12$  18.05$
  Q  0.6645  13.24$  16.47$  3.28$
  Q  0.6645  14.24$  17.64$  3.2$
  Q  -1.3290  13.53$  17.22$  3.48$
  Q  0.6645  12.29$  15.56$  19.13$
  Q  0.6645  12.63$  17.06$  19.42$
  Q  -1.3290  12.45$  16.22$  19.62$
  Q  0.6645  2.75$  12.18$  8.28$
  Q  0.6645  2.43$  12.7$  6.92$
  Q  -1.3290  2.82$  12.71$  7.66$
  Q  0.6645  2.43$  2.4$  9.01$
  Q  0.6645  3.47$  1.99$  7.96$
  Q  -1.3290  2.69$  2.08$  8.28$
  Q  0.6645  13.54$  9.81$  2.23$
  Q  0.6645  12.64$  9.94$  3.45$
  Q  -1.3290  13.12$  9.53$  2.9$
  Q  0.6645  12.48$  1.39$  7.58$
  Q  0.6645  11.64$  1.69$  8.81$
  Q  -1.3290  12.27$  1.29$  8.37$
  Q  0.6645  19.5$  16.87$  12.15$
  Q  0.6645  18.52$  16.63$  11.08$
  Q  -1.3290  19$  17.1$  11.52$
  Q  0.6645  6.75$  5.19$  6.41$
  Q  0.6645  6.04$  5.68$  7.65$
  Q  -1.3290  6.62$  5.23$  7.26$
  Q  0.6645  5.15$  7.23$  14.63$
  Q  0.6645  4.88$  5.77$  14.12$
  Q  -1.3290  5.34$  6.47$  14.27$
  Q  0.6645  2.16$  8.69$  9.84$
  Q  0.6645  0.64$  8.44$  9.73$
  Q  -1.3290  1.42$  8.59$  9.44$
  Q  0.6645  1.24$  14.33$  11.96$
  Q  0.6645  2.65$  14.29$  11.33$
  Q  -1.3290  2.08$  14.48$  11.93$
  Q  0.6645  17.35$  6.54$  5.82$
  Q  0.6645  16.95$  5.83$  7.14$
  Q  -1.3290  17.09$  6.51$  6.63$
  Q  0.6645  12.32$  9.96$  16.44$
  Q  0.6645  11.12$  10.91$  16.29$
  Q  -1.3290  11.6$  10.24$  16.1$
  Q  0.6645  15.06$  9.32$  15.76$
  Q  0.6645  14.15$  8.51$  14.8$
  Q  -1.3290  14.42$  8.8$  15.52$
  Q  0.6645  15.81$  17.12$  14.59$
  Q  0.6645  15.97$  17.5$  16.14$
  Q  -1.3290  15.72$  17.03$  15.43$
  Q  0.6645  18.52$  5.72$  15.93$
  Q  0.6645  18.84$  7.13$  16.44$
  Q  -1.3290  18.38$  6.44$  16.33$
  Q  0.6645  14.25$  21.21$  12.9$
  Q  0.6645  15.65$  22.03$  12.79$
  Q  -1.3290  14.93$  21.62$  12.51$
  Q  0.6645  17.26$  15.55$  13.87$
  Q  0.6645  17$  13.99$  13.75$
  Q  -1.3290  17.49$  14.7$  13.85$
  Q  0.6645  22.14$  15.16$  8.16$
  Q  0.6645  20.83$  14.3$  8.43$
  Q  -1.3290  21.33$  14.89$  8.07$
  Q  0.6645  16.71$  17.79$  7.67$
  Q  0.6645  18.07$  17.83$  8.38$
  Q  -1.3290  17.44$  17.48$  7.96$
  Q  0.6645  18.44$  17.76$  6.1$
  Q  0.6645  17.52$  18.33$  5.02$
  Q  -1.3290  18.14$  17.84$  5.33$
  Q  0.6645  7.92$  5.21$  17.37$
  Q  0.6645  8.64$  5.93$  18.62$
  Q  -1.3290  8.39$  5.79$  17.79$
  Q  0.6645  6.51$  16.53$  5.42$
  Q  0.6645  6.29$  14.96$  5.54$
  Q  -1.3290  6.27$  15.77$  5.76$
  Q  0.6645  18.88$  14.57$  4.82$
  Q  0.6645  19.36$  14.88$  3.51$
  Q  -1.3290  19.15$  14.35$  4.08$
  Q  0.6645  11.67$  5.97$  3.83$
  Q  0.6645  10.47$  5.42$  4.54$
  Q  -1.3290  10.97$  5.59$  3.84$
  Q  0.6645  8.87$  14.81$  7.72$
  Q  0.6645  9.93$  15.91$  7.79$
  Q  -1.3290  9.15$  15.61$  7.74$
  Q  0.6645  2.46$  5.67$  7.9$
  Q  0.6645  2.28$  6.79$  8.93$
  Q  -1.3290  2.37$  6$  8.68$
  Q  0.6645  11.89$  20.21$  13.12$
  Q  0.6645  12.95$  19.85$  14.23$
  Q  -1.3290  12.66$  20.07$  13.46$
  Q  0.6645  9.95$  3.6$  13.61$
  Q  0.6645  10.36$  3.91$  15.06$
  Q  -1.3290  9.81$  3.73$  14.44$
  Q  0.6645  9.23$  16.14$  5.61$
  Q  0.6645  10.04$  17.23$  4.75$
  Q  -1.3290  9.45$  16.59$  4.9$
  Q  0.6645  13.59$  7.45$  18.91$
  Q  0.6645  14.45$  7.54$  17.54$
  Q  -1.3290  14.3$  7.61$  18.38$
  Q  0.6645  10.9$  15.42$  15.57$
  Q  0.6645  11.51$  14.76$  16.8$
  Q  -1.3290  10.88$  15.07$  16.33$
  Q  0.6645  17.01$  8.15$  18.4$
  Q  0.6645  17.62$  9.13$  19.38$
  Q  -1.3290  17.55$  8.79$  18.61$
  Q  0.6645  7.95$  2.34$  6.67$
  Q  0.6645  7.91$  3.81$  7.14$
  Q  -1.3290  8.25$  3.05$  7.1$
  Q  0.6645  10.14$  4.28$  2.45$
  Q  0.6645  9.96$  3.81$  0.96$
  Q  -1.3290  9.82$  3.79$  1.83$
  Q  0.6645  4.58$  15.51$  17.22$
  Q  0.6645  3.15$  14.9$  17.3$
  Q  -1.3290  3.72$  15.53$  17.28$
  Q  0.6645  9.23$  1.74$  9.74$
  Q  0.6645  8.94$  1.23$  11.05$
  Q  -1.3290  8.78$  1.31$  10.28$
  Q  0.6645  7.84$  21.83$  8.79$
  Q  0.6645  8.14$  20.7$  7.79$
  Q  -1.3290  7.65$  21.27$  8.18$
  Q  0.6645  9.26$  9.12$  5.67$
  Q  0.6645  8.78$  8.47$  4.29$
  Q  -1.3290  8.71$  8.75$  5.11$
  Q  0.6645  15.02$  3.23$  14.03$
  Q  0.6645  14.32$  4.17$  13.02$
  Q  -1.3290  14.82$  3.96$  13.64$
  Q  0.6645  4.66$  10.72$  15.15$
  Q  0.6645  3.45$  11.26$  15.97$
  Q  -1.3290  4.01$  11.21$  15.31$
  Q  0.6645  7.46$  0.21$  6.58$
  Q  0.6645  7.13$  0.16$  4.97$
  Q  -1.3290  7.41$  0.53$  5.72$
  Q  0.6645  5.87$  7.13$  8.86$
  Q  0.6645  4.67$  6.28$  9.45$
  Q  -1.3290  5.09$  6.74$  8.88$
  Q  0.6645  13.27$  18.31$  17.9$
  Q  0.6645  14.35$  18.31$  19.07$
  Q  -1.3290  13.58$  18.36$  18.71$
  Q  0.6645  11.64$  21.34$  8.14$
  Q  0.6645  10.79$  20.65$  9.18$
  Q  -1.3290  11.17$  20.73$  8.44$
  Q  0.6645  8.08$  14.39$  20.37$
  Q  0.6645  9.2$  13.36$  20.44$
  Q  -1.3290  8.4$  13.6$  20.5$
  Q  0.6645  1.49$  4.53$  5.81$
  Q  0.6645  2.01$  3.63$  6.9$
  Q  -1.3290  1.95$  4.36$  6.48$
  Q  0.6645  3.97$  4.95$  5.65$
  Q  0.6645  4$  4.84$  4.08$
  Q  -1.3290  4.19$  4.64$  4.89$
  Q  0.6645  3.81$  7.52$  16.74$
  Q  0.6645  3.55$  8.79$  15.95$
  Q  -1.3290  4.02$  8.19$  16.31$
  Q  0.6645  9.35$  19.36$  13.5$
  Q  0.6645  10.1$  20.07$  14.7$
  Q  -1.3290  9.86$  19.95$  13.9$
  Q  0.6645  10.22$  7.14$  2.66$
  Q  0.6645  10.45$  8.63$  2.12$
  Q  -1.3290  10.04$  7.99$  2.5$
  Q  0.6645  4.4$  15.26$  6.18$
  Q  0.6645  3.36$  14.25$  6.07$
  Q  -1.3290  3.65$  14.99$  5.95$
  Q  0.6645  10.71$  16.79$  17.52$
  Q  0.6645  9.62$  16.94$  18.63$
  Q  -1.3290  10.09$  17.18$  17.93$
  Q  0.6645  18.54$  5.02$  11.23$
  Q  0.6645  18.19$  6.42$  11.61$
  Q  -1.3290  18.72$  5.78$  11.5$
  Q  0.6645  6.46$  11.14$  4.55$
  Q  0.6645  6.9$  9.69$  4.71$
  Q  -1.3290  6.42$  10.32$  4.42$
  Q  0.6645  11$  4.83$  8.35$
  Q  0.6645  10.25$  5.92$  7.34$
  Q  -1.3290  10.79$  5.59$  7.97$
  Q  0.6645  11.98$  3.48$  16.28$
  Q  0.6645  11.94$  4.98$  16.02$
  Q  -1.3290  12.2$  4.21$  15.91$
  Q  0.6645  4.73$  15.28$  14.06$
  Q  0.6645  5.37$  16.61$  13.83$
  Q  -1.3290  5.39$  15.79$  14.05$
  Q  0.6645  15.16$  15.33$  9.13$
  Q  0.6645  14.8$  15.57$  7.67$
  Q  -1.3290  14.84$  15.15$  8.4$
  Q  0.6645  8.92$  20.19$  5.58$
  Q  0.6645  9.92$  19.59$  6.46$
  Q  -1.3290  9.15$  19.69$  6.17$
  Q  0.6645  6.78$  20.36$  12.21$
  Q  0.6645  5.49$  20.85$  12.63$
  Q  -1.3290  6.31$  20.76$  12.72$
  Q  0.6645  17.04$  12.71$  7.79$
  Q  0.6645  16.91$  13.19$  6.24$
  Q  -1.3290  16.89$  12.63$  6.93$
  Q  0.6645  14.44$  20.02$  5.43$
  Q  0.6645  13.24$  20.13$  6.39$
  Q  -1.3290  13.76$  20.39$  5.78$
  Q  0.6645  8.34$  11.68$  1.3$
  Q  0.6645  7.62$  12.43$  0.04$
  Q  -1.3290  7.77$  11.82$  0.63$
  Q  0.6645  14.55$  16.45$  5.56$
  Q  0.6645  16.01$  16.61$  5.61$
  Q  -1.3290  15.27$  16.44$  5.94$
  Q  0.6645  22.19$  11.99$  11.26$
  Q  0.6645  20.98$  12.71$  12.07$
  Q  -1.3290  21.52$  12.07$  11.8$
  Q  0.6645  1.79$  16.96$  8.36$
  Q  0.6645  2.46$  15.86$  9.1$
  Q  -1.3290  1.81$  16.33$  8.89$
  Q  0.6645  7.79$  18.73$  7.27$
  Q  0.6645  7.8$  17.24$  7.57$
  Q  -1.3290  7.47$  18.02$  7.64$
  Q  0.6645  18.71$  13.89$  12.47$
  Q  0.6645  19.91$  14.52$  11.63$
  Q  -1.3290  19.34$  13.91$  11.89$
  Q  0.6645  8.47$  5.09$  13.94$
  Q  0.6645  7.13$  5.65$  13.9$
  Q  -1.3290  7.85$  5.45$  13.56$
  Q  0.6645  3.85$  7.86$  11.59$
  Q  0.6645  2.43$  7.47$  11.95$
  Q  -1.3290  2.99$  8$  11.62$
  Q  0.6645  10.62$  19.44$  10.74$
  Q  0.6645  12.14$  19.82$  10.47$
  Q  -1.3290  11.33$  19.92$  10.73$
  Q  0.6645  19.9$  9.6$  10.31$
  Q  0.6645  20.05$  11.03$  11.09$
  Q  -1.3290  19.64$  10.36$  10.69$
  Q  0.6645  5.01$  9.72$  18.86$
  Q  0.6645  4.77$  9.73$  17.36$
  Q  -1.3290  5.12$  10.02$  18.09$
  Q  0.6645  2.28$  11.75$  10.98$
  Q  0.6645  1.86$  10.71$  9.83$
  Q  -1.3290  1.93$  11.45$  10.26$
  Q  0.6645  8.56$  8.73$  17.15$
  Q  0.6645  8$  7.38$  16.83$
  Q  -1.3290  8.23$  8.19$  16.65$
  Q  0.6645  10.11$  11.37$  3.06$
  Q  0.6645  9.79$  12.7$  2.28$
  Q  -1.3290  9.78$  11.86$  2.42$
  Q  0.6645  8.32$  17$  16.96$
  Q  0.6645  7.18$  16.05$  16.53$
  Q  -1.3290  7.6$  16.79$  16.54$
  Q  0.6645  12.66$  13.27$  18.32$
  Q  0.6645  13.66$  14.41$  17.96$
  Q  -1.3290  12.89$  14.01$  17.98$
  Q  0.6645  21.04$  11.8$  15.4$
  Q  0.6645  21.13$  11.99$  16.88$
  Q  -1.3290  20.98$  12.27$  16.11$
  Q  0.6645  7.81$  4.06$  1.75$
  Q  0.6645  6.27$  3.81$  1.9$
  Q  -1.3290  7$  4.25$  1.91$
  Q  0.6645  12.63$  5.02$  11.11$
  Q  0.6645  13.12$  3.64$  10.61$
  Q  -1.3290  13.22$  4.41$  10.93$
  Q  0.6645  18.41$  14.14$  7.34$
  Q  0.6645  18.1$  15.54$  6.97$
  Q  -1.3290  18.44$  14.81$  6.85$
  Q  0.6645  0.94$  9.98$  3.77$
  Q  0.6645  1.27$  11.07$  4.88$
  Q  -1.3290  0.94$  10.34$  4.54$
  Q  0.6645  16.71$  11.04$  15.79$
  Q  0.6645  16.89$  10.12$  17.02$
  Q  -1.3290  16.46$  10.51$  16.4$
  Q  0.6645  17.06$  8.18$  10.47$
  Q  0.6645  16.34$  6.88$  10.83$
  Q  -1.3290  16.98$  7.47$  10.9$
  Q  0.6645  10.31$  19.14$  17.26$
  Q  0.6645  9.91$  20.64$  17.13$
  Q  -1.3290  10.31$  19.9$  16.92$
  Q  0.6645  16.34$  11.13$  19.79$
  Q  0.6645  14.81$  11.39$  19.93$
  Q  -1.3290  15.57$  11.09$  20.17$
  Q  0.6645  4.45$  15.16$  9.73$
  Q  0.6645  3.84$  13.94$  9.2$
  Q  -1.3290  3.84$  14.6$  9.7$
  Q  0.6645  12.7$  20.63$  16.7$
  Q  0.6645  14.04$  21.35$  16.69$
  Q  -1.3290  13.2$  21.28$  16.54$
  Q  0.6645  18.97$  12.68$  16.2$
  Q  0.6645  17.86$  13.3$  15.34$
  Q  -1.3290  18.24$  13.06$  16.08$
  Q  0.6645  9.9$  9.77$  0.39$
  Q  0.6645  10.87$  10.8$  0.83$
  Q  -1.3290  10.65$  10.06$  0.6$
  Q  0.6645  11.82$  11.66$  4.94$
  Q  0.6645  11.38$  10.21$  5.13$
  Q  -1.3290  11.5$  10.92$  4.69$
  Q  0.6645  3.46$  18.7$  11.22$
  Q  0.6645  4.54$  19.34$  10.43$
  Q  -1.3290  4.24$  18.85$  11.01$
  Q  0.6645  7.89$  1.91$  13.32$
  Q  0.6645  6.71$  0.93$  12.97$
  Q  -1.3290  7.07$  1.66$  13.26$
  Q  0.6645  16.83$  12.58$  10$
  Q  0.6645  18.31$  13.32$  10.1$
  Q  -1.3290  17.51$  13.13$  9.8$
  Q  0.6645  7.46$  13.51$  4.15$
  Q  0.6645  5.92$  13.39$  4.36$
  Q  -1.3290  6.74$  13.35$  4.61$
  Q  0.6645  13.79$  18.04$  15.49$
  Q  0.6645  12.3$  18.2$  15.6$
  Q  -1.3290  13.11$  18.42$  15.76$
  Q  0.6645  4.24$  14.1$  2.82$
  Q  0.6645  4.53$  12.6$  2.62$
  Q  -1.3290  4.38$  13.27$  3.07$
  Q  0.6645  17.88$  4.05$  8.27$
  Q  0.6645  16.62$  3.64$  7.62$
  Q  -1.3290  17.11$  4.22$  8.05$
  Q  0.6645  19.01$  15.02$  15.96$
  Q  0.6645  19.66$  16.33$  15.47$
  Q  -1.3290  19.35$  15.78$  16.05$
  Q  0.6645  8.01$  7.7$  1.84$
  Q  0.6645  7.08$  6.43$  1.48$
  Q  -1.3290  7.31$  7.25$  1.59$
  Q  0.6645  17.38$  13.1$  19.02$
  Q  0.6645  16.98$  12.19$  17.83$
  Q  -1.3290  17.23$  12.37$  18.63$
  Q  0.6645  14.02$  12.92$  4.59$
  Q  0.6645  15.34$  12.21$  4.36$
  Q  -1.3290  14.79$  12.83$  4.27$
  Q  0.6645  13.27$  18.38$  7.83$
  Q  0.6645  12.03$  19.24$  7.9$
  Q  -1.3290  12.56$  18.73$  7.5$
  Q  0.6645  10.79$  7.08$  19.25$
  Q  0.6645  11.56$  7.02$  17.85$
  Q  -1.3290  11.44$  7.22$  18.7$
  Q  0.6645  10.12$  6.59$  16.55$
  Q  0.6645  11.28$  7.07$  15.5$
  Q  -1.3290  10.92$  6.63$  16.15$
  Q  0.6645  14.74$  2.29$  6.74$
  Q  0.6645  16.15$  2.08$  6.01$
  Q  -1.3290  15.59$  2.25$  6.66$
  Q  0.6645  3.19$  14.18$  13.56$
  Q  0.6645  3.7$  13.3$  14.65$
  Q  -1.3290  3.47$  14.01$  14.35$
  Q  0.6645  15.3$  18.92$  9.47$
  Q  0.6645  15.33$  19.84$  8.32$
  Q  -1.3290  15.25$  19.1$  8.66$
  Q  0.6645  5.48$  2.4$  8.36$
  Q  0.6645  5.33$  3.25$  7.09$
  Q  -1.3290  5.25$  2.56$  7.55$
  Q  0.6645  9.94$  9.64$  18.89$
  Q  0.6645  8.6$  10.53$  18.66$
  Q  -1.3290  9.07$  9.78$  18.77$
  Q  0.6645  9.87$  4.98$  11.21$
  Q  0.6645  8.67$  4.41$  11.92$
  Q  -1.3290  9.38$  4.33$  11.46$
  Q  0.6645  10.63$  1.32$  13.25$
  Q  0.6645  9.71$  0.04$  13.19$
  Q  -1.3290  9.89$  0.87$  13.2$
  Q  0.6645  12.22$  3.03$  14.12$
  Q  0.6645  12.83$  2.67$  12.72$
  Q  -1.3290  12.31$  2.61$  13.37$
  Q  0.6645  7.16$  18.84$  16.1$
  Q  0.6645  7.12$  19.41$  14.75$
  Q  -1.3290  6.93$  19.41$  15.53$
  Q  0.6645  19.39$  8.64$  7.32$
  Q  0.6645  18.68$  7.42$  7.39$
  Q  -1.3290  19.36$  7.85$  7.45$
  Q  0.6645  7.67$  17.68$  3.72$
  Q  0.6645  6.29$  17.72$  2.96$
  Q  -1.3290  6.83$  17.63$  3.64$
  Q  0.6645  14.58$  5.74$  3.36$
  Q  0.6645  15.02$  4.28$  3.13$
  Q  -1.3290  15.1$  5.12$  3.13$
  Q  0.6645  8.74$  5.89$  5.78$
  Q  0.6645  9.13$  7.33$  6.07$
  Q  -1.3290  9.26$  6.48$  6.07$
  Q  0.6645  7.48$  8.62$  21.56$
  Q  0.6645  8.12$  9.02$  20.27$
  Q  -1.3290  8.09$  8.65$  21.01$
*
