! NoMOPrint PrintBasis #MINIPRINT SMALLPRINT LARGEPRINT
! ALLPOP XYZFILE
#! BP86 3-21G   TightSCF
! ENGRAD
! B3LYP NormalPNO PModel #DecontractAux
#! VerySlowConv 
 %maxcore 5000
 %scf  maxiter   500  end 

%pal
    nprocs 32
end

%basis
    NewGTO O    # New basis for oxygen
        "aug-cc-pVTZ"
    end
    NewGTO C    # New basis for carbon
        "aug-cc-pVTZ"
    end
    NewGTO H    # New basis for hydrogen
        "cc-pVTZ"
    end
end

* xyz 0   1
  C  10.54  9.15  10.57  #1
  H  9.7  8.97  9.86  #2
  H  10.05  9.18  11.6  #3
  C  11.28  10.46  10.43  #4
  H  12.04  10.45  11.18  #5
  H  11.62  10.34  9.44  #6
  C  10.3  11.68  10.68  #7
  H  9.71  11.6  11.54  #8
  H  9.55  11.73  9.88  #9
  C  11.04  12.98  10.85  #10
  H  10.61  13.76  10.17  #11
  H  12.17  12.87  10.6  #12
  O  10.92  13.43  12.24  #13
  H  11.01  14.42  12.29  #14
  O  11.5  8.07  10.54  #15
  H  11.14  7.3  10.01  #16
  O  13.35  7.37  12.49  #17
  H  12.9  7.85  11.85  #18
  H  14.21  7.73  12.73  #19
  O  13.28  16.61  10.97  #20
  H  13.89  15.95  11.3  #21
  H  12.43  16.4  11.44  #22
  O  7.98  12.2  13.15  #23
  H  7.78  12.71  13.95  #24
  H  8.11  12.95  12.55  #25
  O  11.06  6.19  8.45  #26
  H  11.79  6.06  9.11  #27
  H  10.3  5.83  8.88  #28
  O  9.12  7.29  13.84  #29
  H  8.6  7.87  13.19  #30
  H  9.81  6.98  13.23  #31
  O  13.98  18.93  12.44  #32
  H  13.88  17.99  12.1  #33
  H  13.25  19.25  12.96  #34
  O  8.2  5.19  6.54  #35
  H  9.05  4.96  6.1  #36
  H  8.32  5.02  7.46  #37
  O  13.61  3.58  8.29  #38
  H  13.42  3.83  7.38  #39
  H  13.05  4.2  8.78  #40
  O  7.8  11.82  7.35  #41
  H  8.77  11.77  7.12  #42
  H  7.47  10.9  7.25  #43
  O  7.54  13.85  11.17  #44
  H  7.04  13.83  10.3  #45
  H  6.9  14.11  11.8  #46
  O  7.5  13.88  15.36  #47
  H  7.19  13.46  16.2  #48
  H  7.91  14.71  15.71  #49
  O  12.61  4.83  10.57  #50
  H  12.06  4  10.73  #51
  H  13.38  4.81  11.14  #52
  O  8.85  16.39  11.25  #53
  H  8.52  15.54  10.91  #54
  H  8.87  16.99  10.48  #55
  O  11.13  16.05  12.73  #56
  H  10.17  16.27  12.54  #57
  H  11.28  16.09  13.67  #58
  O  13.04  15.77  8.31  #59
  H  13.28  15.71  9.28  #60
  H  13.7  15.17  8.01  #61
  O  11.88  5.03  6.08  #62
  H  11.85  5.38  6.97  #63
  H  11.26  5.47  5.48  #64
  O  7.84  9.42  12.6  #65
  H  7.17  9.26  11.95  #66
  H  7.93  10.38  12.79  #67
  O  11.67  8.75  14.97  #68
  H  12.44  8.39  14.5  #69
  H  10.86  8.42  14.57  #70
  O  15.3  10.93  11.57  #71
  H  14.56  11.2  12.12  #72
  H  15.33  9.98  11.23  #73
  O  10.37  5.16  15.74  #74
  H  11.07  4.67  16.18  #75
  H  10.82  5.52  14.95  #76
  O  10.59  11.28  6.38  #77
  H  10.36  11.25  5.44  #78
  H  10.71  10.29  6.64  #79
  O  5.65  14.91  13.21  #80
  H  6.38  14.71  13.86  #81
  H  5.31  15.72  13.58  #82
  O  8.8  9.96  15.65  #83
  H  9.03  10.68  15.05  #84
  H  8.4  9.36  15.04  #85
  O  10.99  11.54  14.36  #86
  H  10.86  11.97  13.49  #87
  H  11.24  10.63  14.21  #88
  O  11.31  8.7  7.13  #89
  H  11.05  7.79  7.46  #90
  H  12.26  8.7  7.27  #91
  O  14.57  14.5  12.41  #92
  H  15.42  14.06  12.16  #93
  H  14.07  13.76  12.8  #94
  O  5.36  11.55  12.81  #95
  H  5.12  11.42  11.93  #96
  H  6.33  11.62  12.76  #97
  O  15.09  7.72  14.67  #98
  H  15.56  8.28  15.31  #99
  H  15.82  7.2  14.28  #100
  O  11.46  5.56  13.14  #101
  H  11.1  4.8  12.67  #102
  H  11.94  6.17  12.52  #103
  O  15.43  8.39  10.66  #104
  H  16.15  8.16  10.08  #105
  H  15.05  7.59  10.93  #106
  O  6.42  6.5  13.88  #107
  H  6.02  7.35  14  #108
  H  7.35  6.5  14.05  #109
  O  10.26  16.1  8.37  #110
  H  10.51  17.03  8.7  #111
  H  11.05  15.57  8.28  #112
  O  8.54  6.01  9.51  #113
  H  8.53  5.54  10.37  #114
  H  7.6  6.26  9.3  #115
  O  13.8  12.13  13.61  #116
  H  12.87  12.11  13.82  #117
  H  14.22  12  14.48  #118
  Q  0.6645  18.41$  12.08$  17.8$
  Q  0.6645  17.54$  11.33$  18.66$
  Q  -1.3290  18$  11.41$  18$
  Q  0.6645  12.29$  15.9$  4.13$
  Q  0.6645  11.48$  17.23$  4.41$
  Q  -1.3290  11.79$  16.6$  3.91$
  Q  0.6645  17.71$  12.48$  4.91$
  Q  0.6645  18.54$  13.64$  5.48$
  Q  -1.3290  18.2$  12.89$  5.47$
  Q  0.6645  15.18$  13.25$  7.7$
  Q  0.6645  15.46$  13.95$  6.36$
  Q  -1.3290  15.25$  13.91$  7.17$
  Q  0.6645  9.89$  20.56$  5.25$
  Q  0.6645  9.09$  20.5$  6.57$
  Q  -1.3290  9.6$  20.2$  5.97$
  Q  0.6645  8.39$  18.3$  5.68$
  Q  0.6645  7.26$  17.54$  6.52$
  Q  -1.3290  7.68$  17.83$  5.82$
  Q  0.6645  18.41$  13.89$  12.07$
  Q  0.6645  20.05$  14.15$  12.05$
  Q  -1.3290  19.21$  14.18$  12.35$
  Q  0.6645  20.23$  10.81$  12.85$
  Q  0.6645  19.39$  9.79$  12.02$
  Q  -1.3290  19.65$  10.56$  12.28$
  Q  0.6645  6.87$  17.44$  15.32$
  Q  0.6645  5.94$  18.22$  14.35$
  Q  -1.3290  6.17$  17.62$  14.9$
  Q  0.6645  10.39$  19.22$  16.92$
  Q  0.6645  11.85$  19.37$  16.55$
  Q  -1.3290  11.02$  19.57$  16.54$
  Q  0.6645  5.66$  5.46$  12.65$
  Q  0.6645  4.32$  4.71$  12.31$
  Q  -1.3290  5.16$  4.87$  12.27$
  Q  0.6645  19.01$  18.51$  10.3$
  Q  0.6645  19.56$  18.08$  11.66$
  Q  -1.3290  19.62$  18.4$  10.9$
  Q  0.6645  4.05$  3.65$  9.44$
  Q  0.6645  5.26$  3.17$  8.82$
  Q  -1.3290  4.67$  3.13$  9.39$
  Q  0.6645  9.89$  11.89$  2.87$
  Q  0.6645  8.61$  11.7$  3.81$
  Q  -1.3290  9.45$  11.67$  3.57$
  Q  0.6645  9.13$  4.19$  14.94$
  Q  0.6645  8.24$  3.2$  14.96$
  Q  -1.3290  8.69$  3.68$  14.57$
  Q  0.6645  13.92$  11.04$  5.68$
  Q  0.6645  14.42$  9.75$  6.43$
  Q  -1.3290  14.38$  10.29$  5.78$
  Q  0.6645  5.11$  19.77$  4.21$
  Q  0.6645  5.99$  19.05$  5.26$
  Q  -1.3290  5.36$  19.49$  4.99$
  Q  0.6645  7.16$  9.2$  17.06$
  Q  0.6645  5.78$  9.04$  17.93$
  Q  -1.3290  6.32$  9.36$  17.32$
  Q  0.6645  17.19$  14.01$  16.83$
  Q  0.6645  15.91$  14.78$  16.31$
  Q  -1.3290  16.38$  14.34$  16.86$
  Q  0.6645  8.33$  4.48$  12.73$
  Q  0.6645  7.13$  4.43$  11.7$
  Q  -1.3290  7.96$  4.51$  11.93$
  Q  0.6645  12.42$  20.54$  9.48$
  Q  0.6645  10.93$  19.95$  9.49$
  Q  -1.3290  11.55$  20.56$  9.49$
  Q  0.6645  0.9$  7.42$  9.98$
  Q  0.6645  2.13$  6.53$  10.26$
  Q  -1.3290  1.61$  7.16$  10.42$
  Q  0.6645  13.9$  19.43$  17.13$
  Q  0.6645  13.26$  20.25$  18.2$
  Q  -1.3290  13.65$  20.12$  17.47$
  Q  0.6645  14.61$  2.15$  5.67$
  Q  0.6645  13.76$  3.12$  4.85$
  Q  -1.3290  13.86$  2.46$  5.36$
  Q  0.6645  5.06$  13.73$  5.66$
  Q  0.6645  5.24$  15.35$  5.7$
  Q  -1.3290  5.29$  14.51$  5.96$
  Q  0.6645  7.99$  9.51$  19.93$
  Q  0.6645  7.33$  8.17$  20.35$
  Q  -1.3290  7.61$  8.98$  20.48$
  Q  0.6645  14.17$  15.26$  18.94$
  Q  0.6645  13.58$  16.67$  18.34$
  Q  -1.3290  13.82$  16.07$  18.94$
  Q  0.6645  14.43$  8.6$  8.7$
  Q  0.6645  14.9$  7.91$  7.41$
  Q  -1.3290  14.36$  8.4$  7.9$
  Q  0.6645  16.31$  6.17$  7.21$
  Q  0.6645  15.61$  5.69$  5.92$
  Q  -1.3290  15.89$  6.27$  6.48$
  Q  0.6645  7.38$  6.62$  6.01$
  Q  0.6645  7.12$  7.92$  5.07$
  Q  -1.3290  6.92$  7.31$  5.65$
  Q  0.6645  15.66$  -0.59$  14.4$
  Q  0.6645  15.52$  0.17$  15.71$
  Q  -1.3290  15.39$  0.04$  14.9$
  Q  0.6645  1.5$  14.28$  7.33$
  Q  0.6645  2.08$  15.22$  6.21$
  Q  -1.3290  1.78$  14.48$  6.55$
  Q  0.6645  3.51$  9.64$  14.75$
  Q  0.6645  2.68$  10.38$  15.78$
  Q  -1.3290  2.91$  10.13$  15.03$
  Q  0.6645  6.32$  17.2$  8.68$
  Q  0.6645  7.48$  16.43$  8.74$
  Q  -1.3290  7.1$  17.1$  8.55$
  Q  0.6645  9.15$  14.24$  2.44$
  Q  0.6645  10.4$  15.18$  2.91$
  Q  -1.3290  9.91$  14.66$  2.39$
  Q  0.6645  7.52$  0.54$  6.33$
  Q  0.6645  6.92$  -0.14$  7.58$
  Q  -1.3290  7.51$  0.19$  7.09$
  Q  0.6645  15.07$  4.54$  12.32$
  Q  0.6645  15.74$  4.46$  10.96$
  Q  -1.3290  15.33$  4.85$  11.57$
  Q  0.6645  19.14$  2.67$  5.88$
  Q  0.6645  18.35$  3.91$  6.4$
  Q  -1.3290  18.49$  3.2$  5.97$
  Q  0.6645  9.6$  5.85$  3.59$
  Q  0.6645  10.39$  6.96$  4.17$
  Q  -1.3290  10.12$  6.17$  4.13$
  Q  0.6645  17.61$  17.52$  15.89$
  Q  0.6645  16.83$  18.39$  14.82$
  Q  -1.3290  16.95$  17.99$  15.58$
  Q  0.6645  4.93$  16.52$  15.94$
  Q  0.6645  4.49$  15.12$  16.46$
  Q  -1.3290  4.58$  16.01$  16.5$
  Q  0.6645  13.18$  9.07$  17.93$
  Q  0.6645  12.39$  8.64$  16.73$
  Q  -1.3290  12.7$  8.55$  17.49$
  Q  0.6645  1.49$  15.34$  9.06$
  Q  0.6645  2.24$  14.11$  9.45$
  Q  -1.3290  1.53$  14.55$  9.25$
  Q  0.6645  13.75$  6.4$  1.57$
  Q  0.6645  14.03$  6.03$  0.11$
  Q  -1.3290  13.55$  6.3$  0.75$
  Q  0.6645  10.04$  8.45$  1.01$
  Q  0.6645  8.66$  8.97$  0.42$
  Q  -1.3290  9.22$  8.72$  1.02$
  Q  0.6645  16.73$  18.45$  9.64$
  Q  0.6645  17.29$  19.54$  8.69$
  Q  -1.3290  17.31$  18.85$  9.19$
  Q  0.6645  20.03$  17.08$  13.77$
  Q  0.6645  19.36$  16.13$  12.89$
  Q  -1.3290  19.51$  16.87$  13.15$
  Q  0.6645  5.26$  5.57$  10.24$
  Q  0.6645  4.92$  6.01$  8.82$
  Q  -1.3290  5.35$  6.05$  9.54$
  Q  0.6645  17.71$  7.27$  12.37$
  Q  0.6645  16.56$  6.19$  12.57$
  Q  -1.3290  17.12$  6.77$  12.81$
  Q  0.6645  17.52$  17.63$  12.5$
  Q  0.6645  17.67$  16.85$  11.23$
  Q  -1.3290  17.25$  17.28$  11.79$
  Q  0.6645  7.4$  16.9$  1.43$
  Q  0.6645  8.78$  16.51$  1.95$
  Q  -1.3290  8.14$  17.01$  1.87$
  Q  0.6645  10.51$  10.61$  0.86$
  Q  0.6645  10.26$  12.15$  0.51$
  Q  -1.3290  10.62$  11.47$  0.9$
  Q  0.6645  3.85$  13.54$  10.75$
  Q  0.6645  4.27$  14.78$  11.6$
  Q  -1.3290  3.79$  14.33$  11.08$
  Q  0.6645  7.95$  18.91$  14.04$
  Q  0.6645  8.39$  17.85$  13.01$
  Q  -1.3290  8.45$  18.31$  13.72$
  Q  0.6645  6.93$  1.91$  16.87$
  Q  0.6645  6.53$  2.37$  15.4$
  Q  -1.3290  7$  2.35$  16.12$
  Q  0.6645  5.79$  5.88$  15.4$
  Q  0.6645  6.32$  6.4$  16.75$
  Q  -1.3290  5.8$  5.92$  16.25$
  Q  0.6645  13.61$  17.69$  7.84$
  Q  0.6645  13.3$  18.94$  7.12$
  Q  -1.3290  13.78$  18.48$  7.6$
  Q  0.6645  8.97$  17.03$  15.05$
  Q  0.6645  9.05$  16.57$  16.58$
  Q  -1.3290  9$  16.47$  15.71$
  Q  0.6645  9.81$  17.93$  18.73$
  Q  0.6645  8.53$  18.2$  17.99$
  Q  -1.3290  9.29$  17.91$  18.07$
  Q  0.6645  2.65$  7.75$  7.57$
  Q  0.6645  2.67$  9.04$  6.75$
  Q  -1.3290  2.99$  8.33$  7.08$
  Q  0.6645  4.42$  13.17$  18.09$
  Q  0.6645  3.16$  14.04$  18.45$
  Q  -1.3290  3.69$  13.35$  18.51$
  Q  0.6645  3.04$  10.74$  10.44$
  Q  0.6645  3.7$  11.49$  9.27$
  Q  -1.3290  3.69$  11.15$  10.04$
  Q  0.6645  12.95$  4.63$  13.59$
  Q  0.6645  13.5$  3.28$  13.84$
  Q  -1.3290  13.53$  4.11$  13.74$
  Q  0.6645  14.22$  4.45$  15.59$
  Q  0.6645  14.35$  3.27$  16.66$
  Q  -1.3290  14.5$  4.04$  16.31$
  Q  0.6645  8.37$  7.45$  18.02$
  Q  0.6645  7.87$  5.92$  17.98$
  Q  -1.3290  7.81$  6.77$  18.04$
  Q  0.6645  6.75$  2.49$  4.91$
  Q  0.6645  8.32$  2.38$  4.98$
  Q  -1.3290  7.5$  2.14$  5.1$
  Q  0.6645  14.44$  7.77$  4.01$
  Q  0.6645  15.26$  7.66$  2.61$
  Q  -1.3290  14.73$  7.43$  3.26$
  Q  0.6645  6.9$  3.31$  6.89$
  Q  0.6645  5.63$  4.24$  7.01$
  Q  -1.3290  6.1$  3.54$  7.08$
  Q  0.6645  5.66$  3.23$  13.32$
  Q  0.6645  6.33$  1.93$  13.11$
  Q  -1.3290  5.91$  2.47$  13.55$
  Q  0.6645  14.94$  15.5$  13.95$
  Q  0.6645  15.76$  16.49$  14.8$
  Q  -1.3290  15.25$  15.85$  14.69$
  Q  0.6645  6.11$  19.12$  17.11$
  Q  0.6645  6.41$  19.72$  18.58$
  Q  -1.3290  6.41$  19.12$  17.94$
  Q  0.6645  10.79$  2.26$  11.22$
  Q  0.6645  9.57$  3.17$  11.22$
  Q  -1.3290  10.37$  2.95$  11.39$
  Q  0.6645  4.45$  7.12$  4.25$
  Q  0.6645  3.76$  8.02$  5.25$
  Q  -1.3290  3.93$  7.73$  4.51$
  Q  0.6645  1.8$  8.87$  10.87$
  Q  0.6645  1.29$  10.09$  11.81$
  Q  -1.3290  1.66$  9.7$  11.09$
  Q  0.6645  3.62$  5.29$  6.72$
  Q  0.6645  4.35$  6.52$  6.67$
  Q  -1.3290  4.18$  5.8$  6.97$
  Q  0.6645  9.21$  0.35$  12.89$
  Q  0.6645  8.67$  1.73$  13.19$
  Q  -1.3290  8.7$  0.88$  13.26$
  Q  0.6645  17.8$  7.57$  8.24$
  Q  0.6645  17.44$  6.52$  9.14$
  Q  -1.3290  17.43$  7.29$  8.9$
  Q  0.6645  18.55$  7.39$  3.91$
  Q  0.6645  17.16$  6.84$  4.55$
  Q  -1.3290  17.77$  7.02$  3.94$
  Q  0.6645  4.16$  18.17$  12.48$
  Q  0.6645  3.13$  17.04$  12.19$
  Q  -1.3290  3.86$  17.49$  12.09$
  Q  0.6645  15.25$  11.44$  9.58$
  Q  0.6645  16.18$  11.51$  8.51$
  Q  -1.3290  15.54$  11.76$  8.93$
  Q  0.6645  11.98$  14.76$  15.53$
  Q  0.6645  10.88$  15.93$  15.43$
  Q  -1.3290  11.64$  15.55$  15.37$
  Q  0.6645  10.82$  -0.27$  11.09$
  Q  0.6645  11.25$  -0.6$  12.47$
  Q  -1.3290  10.9$  -0.09$  11.9$
  Q  0.6645  16.76$  16.83$  19.23$
  Q  0.6645  16.61$  15.41$  18.48$
  Q  -1.3290  16.86$  15.97$  19.09$
  Q  0.6645  4.39$  20.2$  13.29$
  Q  0.6645  5.45$  19.84$  12.35$
  Q  -1.3290  4.99$  19.72$  13.04$
  Q  0.6645  3.75$  11.05$  5.97$
  Q  0.6645  4.82$  10.11$  6.25$
  Q  -1.3290  4.5$  10.75$  5.85$
  Q  0.6645  18.02$  11.32$  13.13$
  Q  0.6645  16.54$  11.19$  13.21$
  Q  -1.3290  17.27$  11.16$  13.5$
  Q  0.6645  6.06$  17.35$  19.01$
  Q  0.6645  5.32$  16.17$  18.53$
  Q  -1.3290  5.62$  16.65$  19.1$
  Q  0.6645  6.9$  13.27$  18.1$
  Q  0.6645  6.73$  11.89$  17.54$
  Q  -1.3290  6.46$  12.63$  17.78$
  Q  0.6645  10.05$  18.85$  20.66$
  Q  0.6645  11.12$  17.79$  20.95$
  Q  -1.3290  10.42$  18.07$  20.59$
  Q  0.6645  12.26$  12.34$  0.93$
  Q  0.6645  12.95$  13.3$  1.87$
  Q  -1.3290  12.93$  12.81$  1.2$
  Q  0.6645  15.79$  -0.13$  10.54$
  Q  0.6645  16.52$  0.74$  11.59$
  Q  -1.3290  16.42$  0.33$  10.85$
  Q  0.6645  9.6$  2.13$  9.03$
  Q  0.6645  8.37$  1.59$  8.35$
  Q  -1.3290  8.77$  2.03$  8.93$
  Q  0.6645  5.97$  5.4$  3.17$
  Q  0.6645  6.05$  5.71$  4.7$
  Q  -1.3290  5.7$  5.43$  3.96$
  Q  0.6645  7.1$  3.75$  17.56$
  Q  0.6645  8.4$  4$  18.6$
  Q  -1.3290  7.57$  4.01$  18.29$
  Q  0.6645  12.05$  2.22$  8.45$
  Q  0.6645  11.45$  0.93$  8.87$
  Q  -1.3290  11.47$  1.76$  8.88$
  Q  0.6645  6.08$  6.67$  0.41$
  Q  0.6645  6.22$  7.38$  1.74$
  Q  -1.3290  6.11$  6.75$  1.24$
  Q  0.6645  14.3$  17.47$  16.44$
  Q  0.6645  13.03$  16.95$  16.27$
  Q  -1.3290  13.53$  17.47$  16.6$
  Q  0.6645  16.04$  12.12$  3.6$
  Q  0.6645  16$  10.91$  4.47$
  Q  -1.3290  16.32$  11.39$  3.85$
  Q  0.6645  10.95$  17.25$  6.55$
  Q  0.6645  10.64$  18.75$  6.08$
  Q  -1.3290  11.1$  18.01$  6.17$
  Q  0.6645  16.52$  12.63$  10.88$
  Q  0.6645  17.01$  14$  10.28$
  Q  -1.3290  16.91$  13.37$  10.92$
  Q  0.6645  10.84$  12.93$  16.06$
  Q  0.6645  11.97$  12.45$  17.02$
  Q  -1.3290  11.44$  13.02$  16.66$
  Q  0.6645  8.47$  4.29$  1.74$
  Q  0.6645  7.79$  5.56$  1.46$
  Q  -1.3290  8.46$  5.11$  1.68$
  Q  0.6645  1.14$  10.7$  7.2$
  Q  0.6645  1.18$  10.37$  5.66$
  Q  -1.3290  1.46$  10.41$  6.45$
  Q  0.6645  14.54$  18.56$  4.2$
  Q  0.6645  13.36$  17.52$  3.89$
  Q  -1.3290  14.15$  17.9$  3.81$
  Q  0.6645  5.11$  9.29$  10.2$
  Q  0.6645  5.77$  7.88$  10$
  Q  -1.3290  5.7$  8.67$  10.31$
  Q  0.6645  14.73$  9.69$  1.95$
  Q  0.6645  14.93$  9.37$  0.6$
  Q  -1.3290  15.12$  9.28$  1.37$
  Q  0.6645  14.51$  14.23$  3.62$
  Q  0.6645  13.16$  13.65$  4.18$
  Q  -1.3290  13.64$  14.14$  3.66$
  Q  0.6645  8.49$  15.33$  18.68$
  Q  0.6645  7.06$  15.35$  19.25$
  Q  -1.3290  7.65$  15.14$  18.67$
  Q  0.6645  17.22$  10.04$  16.55$
  Q  0.6645  17.03$  10.03$  14.92$
  Q  -1.3290  16.87$  9.79$  15.76$
  Q  0.6645  16.65$  19.62$  18.93$
  Q  0.6645  16.26$  18.56$  17.94$
  Q  -1.3290  16.53$  18.83$  18.68$
  Q  0.6645  17.95$  7.35$  18.5$
  Q  0.6645  17.09$  6.67$  17.38$
  Q  -1.3290  17.81$  6.88$  17.8$
  Q  0.6645  10.13$  14.23$  20.65$
  Q  0.6645  9.83$  14.2$  22.16$
  Q  -1.3290  9.8$  13.88$  21.37$
  Q  0.6645  15.22$  3.07$  8.98$
  Q  0.6645  15.86$  2.24$  10.13$
  Q  -1.3290  15.81$  2.88$  9.59$
  Q  0.6645  18.49$  4.77$  8.59$
  Q  0.6645  17.08$  4.09$  8.8$
  Q  -1.3290  17.65$  4.67$  8.49$
  Q  0.6645  10.33$  6.59$  19.03$
  Q  0.6645  11.29$  7.65$  18.45$
  Q  -1.3290  10.69$  7.35$  18.99$
  Q  0.6645  19.34$  7.78$  6.43$
  Q  0.6645  17.97$  8.27$  5.91$
  Q  -1.3290  18.54$  8.08$  6.5$
  Q  0.6645  13.46$  1.08$  14.11$
  Q  0.6645  12.37$  1.35$  13.16$
  Q  -1.3290  12.82$  1.5$  13.81$
  Q  0.6645  16.62$  1.12$  5.06$
  Q  0.6645  16.72$  2.04$  6.23$
  Q  -1.3290  16.4$  1.4$  5.8$
  Q  0.6645  15.58$  12.47$  16.54$
  Q  0.6645  15.72$  11.06$  15.91$
  Q  -1.3290  15.32$  11.78$  16.13$
  Q  0.6645  3.26$  13.84$  15$
  Q  0.6645  4.54$  13$  15.21$
  Q  -1.3290  3.97$  13.56$  15.42$
  Q  0.6645  4.48$  13.53$  7.85$
  Q  0.6645  3.16$  13.17$  7.28$
  Q  -1.3290  3.76$  13.14$  7.86$
  Q  0.6645  9.63$  9.19$  18.75$
  Q  0.6645  9.33$  9.89$  17.51$
  Q  -1.3290  9.17$  9.66$  18.3$
  Q  0.6645  18.39$  13.82$  14.49$
  Q  0.6645  17.98$  12.42$  14.75$
  Q  -1.3290  18.3$  13.17$  14.97$
  Q  0.6645  14.98$  3.96$  3.35$
  Q  0.6645  14.6$  5.4$  3.61$
  Q  -1.3290  14.66$  4.6$  3.79$
  Q  0.6645  7.11$  12.37$  5.31$
  Q  0.6645  5.95$  11.59$  4.65$
  Q  -1.3290  6.65$  12.07$  4.67$
  Q  0.6645  18.16$  11.23$  6.99$
  Q  0.6645  18.41$  9.93$  7.63$
  Q  -1.3290  18.1$  10.67$  7.61$
  Q  0.6645  19.54$  11.81$  10.47$
  Q  0.6645  18.79$  11.93$  9.17$
  Q  -1.3290  19.33$  12.15$  9.75$
  Q  0.6645  1.75$  10.94$  13.73$
  Q  0.6645  0.28$  11.34$  13.9$
  Q  -1.3290  1.01$  11.22$  13.47$
  Q  0.6645  7.27$  1.95$  10.49$
  Q  0.6645  5.8$  2.09$  10.64$
  Q  -1.3290  6.55$  1.81$  10.84$
  Q  0.6645  6.37$  9.32$  3.04$
  Q  0.6645  7.74$  8.96$  2.58$
  Q  -1.3290  7.07$  8.84$  3.06$
  Q  0.6645  10.28$  9.41$  4.03$
  Q  0.6645  11.29$  8.88$  5.1$
  Q  -1.3290  10.89$  8.92$  4.33$
  Q  0.6645  18.03$  16.78$  7.87$
  Q  0.6645  19.51$  16.3$  8.23$
  Q  -1.3290  18.84$  16.59$  7.74$
  Q  0.6645  15.78$  19.66$  12.77$
  Q  0.6645  17.24$  20.12$  13.06$
  Q  -1.3290  16.44$  19.9$  13.26$
  Q  0.6645  1.93$  4.15$  10.58$
  Q  0.6645  1.92$  4.06$  9.05$
  Q  -1.3290  2.22$  4.33$  9.8$
  Q  0.6645  5.27$  19.78$  8.57$
  Q  0.6645  5.16$  21.35$  8.39$
  Q  -1.3290  5.52$  20.6$  8.62$
  Q  0.6645  17.91$  4.31$  16.04$
  Q  0.6645  16.44$  3.88$  16.45$
  Q  -1.3290  17.29$  3.78$  16.35$
  Q  0.6645  10.97$  2.45$  17.11$
  Q  0.6645  12.37$  2.52$  17.63$
  Q  -1.3290  11.62$  2.84$  17.45$
  Q  0.6645  17.31$  2.17$  13.27$
  Q  0.6645  15.98$  1.65$  13.67$
  Q  -1.3290  16.5$  2.02$  13.19$
  Q  0.6645  6.29$  14.54$  7.88$
  Q  0.6645  6.85$  13.2$  8.17$
  Q  -1.3290  6.52$  13.93$  8.37$
  Q  0.6645  6.3$  20.59$  14.65$
  Q  0.6645  7.55$  21.41$  14.51$
  Q  -1.3290  7.1$  20.78$  14.78$
  Q  0.6645  10.26$  4.74$  20.2$
  Q  0.6645  10.54$  4.15$  18.78$
  Q  -1.3290  10.12$  4.63$  19.35$
  Q  0.6645  12.56$  13.48$  19.87$
  Q  0.6645  13.55$  13.1$  20.91$
  Q  -1.3290  13.31$  13.22$  20.14$
  Q  0.6645  14.23$  19.62$  10.56$
  Q  0.6645  14.17$  19.74$  8.93$
  Q  -1.3290  14.12$  20.01$  9.77$
  Q  0.6645  11.2$  14.57$  18.24$
  Q  0.6645  11.83$  15.39$  19.31$
  Q  -1.3290  11.27$  14.85$  19.01$
  Q  0.6645  16.46$  15.03$  8.47$
  Q  0.6645  17.91$  15.12$  8.8$
  Q  -1.3290  17.09$  15.2$  8.95$
  Q  0.6645  16.55$  15.09$  3.72$
  Q  0.6645  17.01$  13.85$  2.95$
  Q  -1.3290  16.52$  14.26$  3.51$
  Q  0.6645  6.38$  9.12$  8.52$
  Q  0.6645  6.78$  8.43$  7.17$
  Q  -1.3290  6.62$  9.09$  7.68$
  Q  0.6645  5.53$  9.92$  14.04$
  Q  0.6645  5.55$  9.46$  15.6$
  Q  -1.3290  5.51$  9.39$  14.73$
  Q  0.6645  12.91$  22.38$  5.8$
  Q  0.6645  12.11$  21.08$  6.17$
  Q  -1.3290  12.82$  21.56$  6.02$
  Q  0.6645  8.66$  19.68$  10.34$
  Q  0.6645  8.55$  18.76$  9.24$
  Q  -1.3290  8.99$  19.14$  9.85$
  Q  0.6645  12.47$  9.79$  2.96$
  Q  0.6645  12.95$  11.15$  2.46$
  Q  -1.3290  13.03$  10.4$  2.83$
  Q  0.6645  18.74$  6.51$  15.9$
  Q  0.6645  18.11$  6$  14.56$
  Q  -1.3290  18.68$  6.02$  15.21$
  Q  0.6645  19.9$  12.13$  15.14$
  Q  0.6645  20.48$  10.7$  15.64$
  Q  -1.3290  20.44$  11.44$  15.15$
  Q  0.6645  10.58$  0$  16.6$
  Q  0.6645  10.17$  0.98$  15.44$
  Q  -1.3290  10.29$  0.73$  16.23$
  Q  0.6645  20.07$  7.68$  11.83$
  Q  0.6645  19.43$  8.15$  10.66$
  Q  -1.3290  19.44$  8.02$  11.45$
  Q  0.6645  14.16$  6.98$  17.44$
  Q  0.6645  14.74$  5.63$  17.27$
  Q  -1.3290  14.75$  6.43$  17.52$
  Q  0.6645  19.72$  14.11$  9.76$
  Q  0.6645  20.86$  15.25$  9.89$
  Q  -1.3290  20.1$  14.89$  9.62$
  Q  0.6645  4.42$  17.46$  10.25$
  Q  0.6645  3.9$  17.49$  8.82$
  Q  -1.3290  4.46$  17.65$  9.42$
  Q  0.6645  12.16$  12.27$  6.22$
  Q  0.6645  13.35$  13.22$  6.26$
  Q  -1.3290  12.88$  12.64$  5.92$
  Q  0.6645  11.36$  19.69$  14.54$
  Q  0.6645  10.54$  19$  13.61$
  Q  -1.3290  11.22$  19.39$  13.8$
  Q  0.6645  10.3$  2.31$  4.6$
  Q  0.6645  10.91$  3.33$  5.67$
  Q  -1.3290  10.31$  2.93$  5.25$
  Q  0.6645  6.34$  15.37$  3.61$
  Q  0.6645  6.44$  16.71$  4.06$
  Q  -1.3290  6.01$  16.07$  3.87$
  Q  0.6645  7.02$  14.06$  1.65$
  Q  0.6645  6.92$  13.44$  3.11$
  Q  -1.3290  7.21$  13.97$  2.49$
  Q  0.6645  13.71$  11.5$  17.35$
  Q  0.6645  13.43$  11.72$  18.83$
  Q  -1.3290  13.31$  11.37$  18.09$
  Q  0.6645  6.81$  21.53$  11.4$
  Q  0.6645  6.44$  20.56$  10.23$
  Q  -1.3290  6.8$  20.78$  10.99$
  Q  0.6645  4.25$  11.16$  2.55$
  Q  0.6645  4.17$  9.63$  3.1$
  Q  -1.3290  4.45$  10.31$  2.64$
*
