! NoMOPrint PrintBasis #MINIPRINT SMALLPRINT LARGEPRINT
! ALLPOP XYZFILE
#! BP86 3-21G   TightSCF
! ENGRAD
! B3LYP NormalPNO PModel #DecontractAux
#! VerySlowConv 
 %maxcore 5000
 %scf  maxiter   500  end 

%pal
    nprocs 32
end

%basis
    NewGTO O    # New basis for oxygen
        "aug-cc-pVTZ"
    end
    NewGTO C    # New basis for carbon
        "aug-cc-pVTZ"
    end
    NewGTO H    # New basis for hydrogen
        "cc-pVTZ"
    end
end

* xyz 0   1
  C  9.39  9.58  10.6  #1
  H  8.51  10.04  11.02  #2
  H  9.69  8.76  11.25  #3
  C  10.52  10.65  10.45  #4
  H  11.31  10.3  9.74  #5
  H  10.02  11.51  9.95  #6
  C  11.26  11.07  11.71  #7
  H  11.5  10.29  12.37  #8
  H  10.6  11.82  12.27  #9
  C  12.52  11.9  11.51  #10
  H  13.32  11.28  11.08  #11
  H  12.92  12.22  12.5  #12
  O  12.33  13.12  10.72  #13
  H  11.57  13.66  11.16  #14
  O  8.96  9.07  9.33  #15
  H  8.67  8.17  9.5  #16
  O  15.26  13.8  10.69  #17
  H  15.12  14.68  10.47  #18
  H  14.36  13.42  10.78  #19
  O  8.27  13.74  9.13  #20
  H  8.26  14.7  8.99  #21
  H  7.55  13.33  8.59  #22
  O  12.03  14  14.19  #23
  H  11.11  14  13.9  #24
  H  12.26  14.9  14  #25
  O  7.83  10.29  7.15  #26
  H  8.35  9.9  7.99  #27
  H  7.54  9.56  6.62  #28
  O  13.64  9.21  8.55  #29
  H  13.11  8.7  9.22  #30
  H  13.08  9.26  7.76  #31
  O  11.9  7.16  6.46  #32
  H  11.36  6.65  7.05  #33
  H  11.52  7.98  6.32  #34
  O  14.41  16.16  9.74  #35
  H  13.83  16.14  8.94  #36
  H  14.04  16.97  10.19  #37
  O  16.64  13.52  13.49  #38
  H  16.06  13.53  12.71  #39
  H  16.65  12.55  13.73  #40
  O  11.89  7.33  10.23  #41
  H  12.59  6.66  10.08  #42
  H  11.26  7.25  9.5  #43
  O  9.33  13.83  13.57  #44
  H  8.48  13.7  13.07  #45
  H  9  13.94  14.49  #46
  O  15.9  10.74  7.28  #47
  H  16.43  10.39  6.6  #48
  H  15.02  10.51  6.9  #49
  O  12.18  7.27  13.01  #50
  H  11.31  6.9  13.28  #51
  H  11.98  7.45  12.08  #52
  O  10.56  9.67  6.1  #53
  H  9.88  10.2  6.49  #54
  H  11.24  10.3  5.7  #55
  O  16.2  7.75  7.35  #56
  H  17.06  7.81  7.78  #57
  H  15.63  8.41  7.72  #58
  O  15.86  11.08  10.24  #59
  H  15.81  12.06  10.14  #60
  H  15.49  10.63  9.42  #61
  O  13.2  10.93  5.94  #62
  H  13.44  10.95  5.07  #63
  H  12.98  11.87  6.22  #64
  O  7.98  6.45  10.24  #65
  H  7.38  6.36  9.46  #66
  H  8.69  5.79  10.02  #67
  O  9.93  16.2  12.03  #68
  H  9.69  15.55  12.66  #69
  H  10.66  16.66  12.44  #70
  O  10.73  12.99  7.93  #71
  H  11.35  13.12  8.61  #72
  H  9.86  13.25  8.26  #73
  O  6.3  10.9  13.17  #74
  H  6.8  11.64  12.89  #75
  H  6.45  10.18  12.54  #76
  O  6.22  12.46  7.86  #77
  H  6.64  11.66  7.53  #78
  H  5.49  12.79  7.32  #79
  O  12.89  11.64  15.28  #80
  H  13.19  12  16.18  #81
  H  12.91  12.49  14.8  #82
  O  8.71  16.42  9.61  #83
  H  8.05  17.14  9.66  #84
  H  8.98  16.26  10.56  #85
  O  13.67  9.05  14.42  #86
  H  13.16  9.78  14.66  #87
  H  13.05  8.36  14.11  #88
  O  6.48  8.42  11.55  #89
  H  7.05  7.63  11.28  #90
  H  5.61  8.42  11.04  #91
  O  7.21  13.25  11.74  #92
  H  7.55  13.16  10.86  #93
  H  6.67  13.99  11.74  #94
  O  15.63  9.19  12.44  #95
  H  15.32  9.7  11.63  #96
  H  14.88  9.02  13.03  #97
  O  7.31  12.47  4.8  #98
  H  7.29  11.62  5.27  #99
  H  7.93  12.94  5.38  #100
  Q  0.6645  12.88$  11.96$  2.61$
  Q  0.6645  11.45$  12.52$  2.97$
  Q  -1.3290  12.23$  12.49$  2.56$
  Q  0.6645  9.59$  17.18$  8.06$
  Q  0.6645  9.77$  17.5$  6.55$
  Q  -1.3290  10.02$  17.35$  7.35$
  Q  0.6645  14.92$  6.25$  16.22$
  Q  0.6645  14.53$  7.3$  15.22$
  Q  -1.3290  15.06$  6.78$  15.59$
  Q  0.6645  10.26$  5.78$  3.26$
  Q  0.6645  9.4$  6.73$  2.29$
  Q  -1.3290  9.55$  6.11$  2.9$
  Q  0.6645  16.02$  12.58$  7.58$
  Q  0.6645  16.26$  13.96$  8.17$
  Q  -1.3290  15.89$  13.41$  7.64$
  Q  0.6645  8.62$  6.79$  4.84$
  Q  0.6645  9.31$  8.2$  5.06$
  Q  -1.3290  8.66$  7.6$  4.98$
  Q  0.6645  4.11$  8.95$  9.56$
  Q  0.6645  3.03$  7.79$  9.61$
  Q  -1.3290  3.79$  8.17$  9.75$
  Q  0.6645  16.47$  7.49$  11.76$
  Q  0.6645  16.64$  5.92$  11.75$
  Q  -1.3290  16.49$  6.69$  11.41$
  Q  0.6645  7.69$  2.97$  2.81$
  Q  0.6645  8.77$  4.06$  2.51$
  Q  -1.3290  8.31$  3.34$  2.34$
  Q  0.6645  15.6$  9.22$  4.36$
  Q  0.6645  15.91$  7.87$  3.53$
  Q  -1.3290  15.48$  8.59$  3.78$
  Q  0.6645  7.83$  18.18$  17.28$
  Q  0.6645  9.05$  18.66$  18.2$
  Q  -1.3290  8.21$  18.54$  17.96$
  Q  0.6645  3.97$  17.07$  6.94$
  Q  0.6645  3.76$  15.65$  6.43$
  Q  -1.3290  4.03$  16.46$  6.38$
  Q  0.6645  2.84$  16.74$  10.88$
  Q  0.6645  3.12$  15.83$  9.65$
  Q  -1.3290  3.33$  16.33$  10.31$
  Q  0.6645  5.65$  4.5$  11.69$
  Q  0.6645  6.73$  5.11$  10.67$
  Q  -1.3290  6.32$  4.49$  11.1$
  Q  0.6645  7.16$  8.18$  19.17$
  Q  0.6645  7.7$  7.01$  18.44$
  Q  -1.3290  7.66$  7.56$  19.08$
  Q  0.6645  6.2$  6.68$  14.36$
  Q  0.6645  7.26$  7.7$  14.66$
  Q  -1.3290  6.85$  6.97$  14.81$
  Q  0.6645  0.43$  14.48$  12.51$
  Q  0.6645  -0.9$  15.09$  13$
  Q  -1.3290  -0.06$  14.92$  13.06$
  Q  0.6645  12.87$  18.09$  3.53$
  Q  0.6645  13.06$  16.61$  3.75$
  Q  -1.3290  13.29$  17.39$  3.69$
  Q  0.6645  12.39$  19.72$  15.78$
  Q  0.6645  11.8$  21.1$  15.29$
  Q  -1.3290  11.81$  20.31$  15.61$
  Q  0.6645  16.47$  8.39$  17.67$
  Q  0.6645  16.64$  7.58$  16.35$
  Q  -1.3290  16.91$  8.09$  16.98$
  Q  0.6645  16.78$  11.5$  20.08$
  Q  0.6645  16.42$  10.05$  19.5$
  Q  -1.3290  16.94$  10.73$  19.74$
  Q  0.6645  18.35$  14.02$  13.24$
  Q  0.6645  19.47$  13.13$  12.67$
  Q  -1.3290  19.1$  13.86$  12.89$
  Q  0.6645  5.12$  10.07$  3.75$
  Q  0.6645  4.42$  11.24$  2.92$
  Q  -1.3290  4.45$  10.55$  3.47$
  Q  0.6645  8.67$  14.94$  18.64$
  Q  0.6645  9.26$  16.35$  18.5$
  Q  -1.3290  9.01$  15.59$  18.22$
  Q  0.6645  14$  13.79$  7.06$
  Q  0.6645  12.57$  14.11$  7.37$
  Q  -1.3290  13.17$  13.87$  6.86$
  Q  0.6645  19.32$  11.21$  13.18$
  Q  0.6645  20.82$  11.64$  13.55$
  Q  -1.3290  20.17$  11.43$  13$
  Q  0.6645  21.7$  8.78$  9.56$
  Q  0.6645  21.99$  8.48$  8.16$
  Q  -1.3290  21.77$  8.28$  8.89$
  Q  0.6645  1.21$  9.8$  12.31$
  Q  0.6645  2.62$  10.38$  12.69$
  Q  -1.3290  1.97$  9.84$  12.71$
  Q  0.6645  3.45$  12.43$  6.12$
  Q  0.6645  4.44$  13.6$  5.39$
  Q  -1.3290  3.97$  13.17$  6.01$
  Q  0.6645  5.45$  9.85$  18.53$
  Q  0.6645  4.72$  8.73$  19.42$
  Q  -1.3290  5.37$  9.22$  19.13$
  Q  0.6645  12.2$  4.16$  11.82$
  Q  0.6645  12.85$  5.42$  12.67$
  Q  -1.3290  12.65$  4.58$  12.45$
  Q  0.6645  2.74$  1.62$  12.85$
  Q  0.6645  2.7$  3.18$  12.99$
  Q  -1.3290  2.99$  2.4$  13.14$
  Q  0.6645  6.1$  2.57$  6.8$
  Q  0.6645  7.6$  2.14$  6.93$
  Q  -1.3290  6.91$  2.47$  6.56$
  Q  0.6645  17.66$  4.52$  13.59$
  Q  0.6645  16.22$  4.06$  13.12$
  Q  -1.3290  16.92$  4.51$  13.12$
  Q  0.6645  8.42$  1.55$  10.29$
  Q  0.6645  7.32$  2.75$  10.31$
  Q  -1.3290  7.66$  1.96$  10.12$
  Q  0.6645  14.34$  17.63$  16.47$
  Q  0.6645  15.52$  18.63$  16.25$
  Q  -1.3290  15.16$  17.86$  16.4$
  Q  0.6645  19.52$  10.3$  16.57$
  Q  0.6645  18.13$  9.58$  16.6$
  Q  -1.3290  18.68$  10.19$  16.38$
  Q  0.6645  7.22$  6.35$  16.36$
  Q  0.6645  6.71$  5.21$  17.45$
  Q  -1.3290  7.19$  5.85$  17.12$
  Q  0.6645  18.27$  9.73$  8.63$
  Q  0.6645  17.54$  10.57$  9.58$
  Q  -1.3290  18.15$  10.41$  9.07$
  Q  0.6645  4.44$  2.91$  8.26$
  Q  0.6645  3.92$  3.29$  6.83$
  Q  -1.3290  4.5$  3.24$  7.46$
  Q  0.6645  18.35$  16.99$  17.56$
  Q  0.6645  16.83$  17.14$  17.14$
  Q  -1.3290  17.53$  16.82$  17.56$
  Q  0.6645  21.21$  13.31$  18.8$
  Q  0.6645  19.9$  13.54$  17.94$
  Q  -1.3290  20.42$  13.58$  18.64$
  Q  0.6645  16.81$  5.8$  4.28$
  Q  0.6645  17.39$  5.98$  2.9$
  Q  -1.3290  17.23$  6.23$  3.68$
  Q  0.6645  14.88$  14.4$  18.13$
  Q  0.6645  15.87$  15.58$  18.32$
  Q  -1.3290  15.49$  14.84$  18.5$
  Q  0.6645  2.92$  4.67$  4.83$
  Q  0.6645  2.03$  4.24$  5.94$
  Q  -1.3290  2.65$  4.12$  5.38$
  Q  0.6645  12.13$  17.44$  15.14$
  Q  0.6645  11.88$  16.56$  16.38$
  Q  -1.3290  12.26$  17.16$  15.92$
  Q  0.6645  -0.56$  10.9$  11.04$
  Q  0.6645  0.79$  10.79$  10.18$
  Q  -1.3290  0.14$  10.52$  10.71$
  Q  0.6645  13.49$  5.18$  18.34$
  Q  0.6645  12.57$  6.18$  17.64$
  Q  -1.3290  13.23$  5.63$  17.66$
  Q  0.6645  8.32$  11.99$  18.07$
  Q  0.6645  7.39$  11.19$  17.09$
  Q  -1.3290  8.07$  11.66$  17.33$
  Q  0.6645  15.74$  19.83$  10.09$
  Q  0.6645  16.71$  21.07$  10.26$
  Q  -1.3290  16.12$  20.49$  10.47$
  Q  0.6645  4.82$  10.73$  16.33$
  Q  0.6645  5.42$  11.78$  17.17$
  Q  -1.3290  5.4$  11$  16.84$
  Q  0.6645  11.58$  18.32$  12.98$
  Q  0.6645  12.92$  17.92$  12.33$
  Q  -1.3290  12.27$  17.84$  12.9$
  Q  0.6645  11.49$  9.4$  17.77$
  Q  0.6645  11.68$  10.31$  19.06$
  Q  -1.3290  11.76$  9.62$  18.57$
  Q  0.6645  7.98$  13.55$  16.34$
  Q  0.6645  8.04$  15.1$  16.53$
  Q  -1.3290  7.85$  14.35$  16.14$
  Q  0.6645  6.05$  21.32$  7.21$
  Q  0.6645  7.53$  21.56$  6.98$
  Q  -1.3290  6.82$  21.11$  6.97$
  Q  0.6645  19.41$  18.56$  10.37$
  Q  0.6645  18.27$  18.51$  9.26$
  Q  -1.3290  19.07$  18.6$  9.58$
  Q  0.6645  14.94$  4.48$  5.32$
  Q  0.6645  15.6$  3.07$  5.45$
  Q  -1.3290  15.47$  3.84$  5.09$
  Q  0.6645  17.1$  8$  14.31$
  Q  0.6645  17.49$  6.57$  13.96$
  Q  -1.3290  17.65$  7.36$  14.14$
  Q  0.6645  6.62$  1.63$  15.27$
  Q  0.6645  7.72$  2.45$  15.93$
  Q  -1.3290  7.09$  1.91$  15.9$
  Q  0.6645  8.26$  20.45$  11.17$
  Q  0.6645  9.66$  19.81$  11.04$
  Q  -1.3290  8.96$  20.1$  11.46$
  Q  0.6645  14.69$  2$  12.84$
  Q  0.6645  13.83$  3.3$  13.24$
  Q  -1.3290  14.43$  2.65$  13.37$
  Q  0.6645  10.02$  0.44$  7.32$
  Q  0.6645  9.49$  0.49$  5.89$
  Q  -1.3290  9.42$  0.47$  6.73$
  Q  0.6645  8.08$  18$  13.12$
  Q  0.6645  6.74$  18.12$  14.03$
  Q  -1.3290  7.25$  18.13$  13.28$
  Q  0.6645  13.01$  12.63$  18.42$
  Q  0.6645  12.88$  13.67$  17.32$
  Q  -1.3290  13.22$  13$  17.69$
  Q  0.6645  11.06$  18.46$  9.7$
  Q  0.6645  10.93$  19.88$  9.35$
  Q  -1.3290  11.01$  19.25$  9.88$
  Q  0.6645  11.54$  7.87$  19.82$
  Q  0.6645  11.56$  6.98$  21.07$
  Q  -1.3290  11.82$  7.23$  20.28$
  Q  0.6645  13.65$  22.12$  13.94$
  Q  0.6645  14.57$  20.94$  13.65$
  Q  -1.3290  14.07$  21.54$  13.44$
  Q  0.6645  12.34$  4.7$  4.31$
  Q  0.6645  11.63$  6.03$  4.78$
  Q  -1.3290  11.91$  5.44$  4.21$
  Q  0.6645  12.2$  1.92$  15.94$
  Q  0.6645  11.99$  2.27$  14.52$
  Q  -1.3290  12.06$  1.75$  15.16$
  Q  0.6645  6.27$  16.71$  12.2$
  Q  0.6645  5.4$  16.04$  11.05$
  Q  -1.3290  5.85$  16.06$  11.79$
  Q  0.6645  5.47$  1.9$  3.22$
  Q  0.6645  5.96$  2.72$  4.46$
  Q  -1.3290  5.83$  2.54$  3.62$
  Q  0.6645  4.53$  15.52$  15.32$
  Q  0.6645  5.87$  14.87$  15.8$
  Q  -1.3290  5.15$  15.31$  15.88$
  Q  0.6645  0.88$  6.39$  8.99$
  Q  0.6645  0.99$  5.44$  10.12$
  Q  -1.3290  1.16$  5.71$  9.34$
  Q  0.6645  8.92$  4.41$  16.55$
  Q  0.6645  10.33$  4.04$  15.78$
  Q  -1.3290  9.45$  4.09$  15.94$
  Q  0.6645  5.66$  6.71$  0.66$
  Q  0.6645  4.2$  7.03$  0.94$
  Q  -1.3290  5$  6.86$  1.15$
  Q  0.6645  3.31$  14.73$  11.36$
  Q  0.6645  1.98$  13.97$  11.13$
  Q  -1.3290  2.77$  14.08$  11.39$
  Q  0.6645  12.65$  6.91$  3.22$
  Q  0.6645  13.44$  8.24$  3.23$
  Q  -1.3290  12.87$  7.67$  2.93$
  Q  0.6645  9.49$  1.55$  12.3$
  Q  0.6645  9.69$  0.09$  11.9$
  Q  -1.3290  9.79$  0.92$  11.81$
  Q  0.6645  1.92$  7.05$  12.83$
  Q  0.6645  2.74$  7.9$  11.99$
  Q  -1.3290  2.54$  7.17$  12.35$
  Q  0.6645  20.46$  12.67$  8.94$
  Q  0.6645  19.43$  11.76$  9.53$
  Q  -1.3290  19.92$  12.46$  9.51$
  Q  0.6645  1.99$  5.67$  3.12$
  Q  0.6645  2.68$  7.1$  3.47$
  Q  -1.3290  2.51$  6.26$  3.52$
  Q  0.6645  11.13$  3.04$  7.37$
  Q  0.6645  12.13$  3.17$  8.33$
  Q  -1.3290  11.38$  3.23$  8.12$
  Q  0.6645  2.84$  9.39$  3$
  Q  0.6645  1.97$  9.22$  1.72$
  Q  -1.3290  2.18$  9.08$  2.57$
  Q  0.6645  2.86$  13.47$  15.62$
  Q  0.6645  2.85$  13.63$  14.06$
  Q  -1.3290  2.81$  13.23$  14.8$
  Q  0.6645  -0.25$  6.57$  4.52$
  Q  0.6645  1.21$  6.51$  4.75$
  Q  -1.3290  0.42$  6.57$  5.01$
  Q  0.6645  8$  9.18$  1.85$
  Q  0.6645  7.59$  9.91$  0.48$
  Q  -1.3290  8.07$  9.53$  1.07$
  Q  0.6645  12.85$  19.49$  10.7$
  Q  0.6645  14.11$  19.7$  11.44$
  Q  -1.3290  13.58$  19.23$  11.04$
  Q  0.6645  2.94$  3.94$  10.97$
  Q  0.6645  2.6$  5.24$  11.68$
  Q  -1.3290  2.57$  4.42$  11.55$
  Q  0.6645  2.68$  10.09$  14.8$
  Q  0.6645  2.89$  11.46$  15.41$
  Q  -1.3290  2.95$  10.61$  15.38$
  Q  0.6645  7.03$  5.97$  7.33$
  Q  0.6645  7.18$  4.55$  6.98$
  Q  -1.3290  7.47$  5.31$  7.16$
  Q  0.6645  -0.07$  4.63$  6.66$
  Q  0.6645  0.66$  4.57$  8.04$
  Q  -1.3290  0.45$  4.33$  7.26$
  Q  0.6645  2.98$  10.97$  4.92$
  Q  0.6645  1.62$  10.66$  5.81$
  Q  -1.3290  2.36$  11.07$  5.55$
  Q  0.6645  9.04$  2.24$  3.55$
  Q  0.6645  8.26$  2.1$  4.83$
  Q  -1.3290  8.9$  2.01$  4.33$
  Q  0.6645  14.75$  11.66$  3.27$
  Q  0.6645  15$  10.3$  2.8$
  Q  -1.3290  14.52$  10.96$  2.89$
  Q  0.6645  16.94$  10.37$  13.14$
  Q  0.6645  17.85$  10.43$  14.48$
  Q  -1.3290  17.63$  10.52$  13.65$
  Q  0.6645  6.24$  13.73$  4.11$
  Q  0.6645  5.46$  15.08$  3.6$
  Q  -1.3290  5.61$  14.22$  3.76$
  Q  0.6645  3.88$  12.37$  11.9$
  Q  0.6645  4.78$  11.11$  12.52$
  Q  -1.3290  4.15$  11.51$  12.07$
  Q  0.6645  17.87$  14.13$  6.38$
  Q  0.6645  18.52$  12.88$  5.91$
  Q  -1.3290  18.38$  13.69$  5.91$
  Q  0.6645  11.94$  15.58$  18.7$
  Q  0.6645  10.78$  14.98$  17.92$
  Q  -1.3290  11.55$  15.25$  18.03$
  Q  0.6645  4.98$  3.74$  16.36$
  Q  0.6645  3.6$  4.38$  15.76$
  Q  -1.3290  4.44$  4.26$  15.87$
  Q  0.6645  13.8$  2.16$  9.99$
  Q  0.6645  13.98$  3.67$  9.48$
  Q  -1.3290  13.82$  2.84$  9.41$
  Q  0.6645  16.11$  18.53$  7.86$
  Q  0.6645  15.92$  17.35$  8.89$
  Q  -1.3290  16.14$  18.16$  8.64$
  Q  0.6645  19.34$  8.1$  13.29$
  Q  0.6645  20.19$  9.13$  13$
  Q  -1.3290  20.05$  8.37$  13.08$
  Q  0.6645  9.22$  3.14$  13.95$
  Q  0.6645  7.84$  3.01$  13.02$
  Q  -1.3290  8.71$  3.06$  13.23$
  Q  0.6645  4.09$  5.98$  17.91$
  Q  0.6645  4.74$  6.71$  16.72$
  Q  -1.3290  4.16$  6.6$  17.32$
  Q  0.6645  9.46$  19.52$  13.57$
  Q  0.6645  10.47$  19.35$  14.84$
  Q  -1.3290  9.96$  19.08$  14.14$
  Q  0.6645  2.27$  7.27$  16.77$
  Q  0.6645  0.99$  6.56$  17.32$
  Q  -1.3290  1.48$  6.93$  16.75$
  Q  0.6645  21.08$  12.6$  15.66$
  Q  0.6645  22.51$  12.87$  14.96$
  Q  -1.3290  21.82$  12.38$  15.26$
  Q  0.6645  2.2$  10.06$  16.95$
  Q  0.6645  2.29$  9.5$  18.46$
  Q  -1.3290  1.93$  9.88$  17.76$
  Q  0.6645  15.32$  12.31$  21.2$
  Q  0.6645  15.37$  13.71$  20.5$
  Q  -1.3290  15.65$  13.09$  20.99$
  Q  0.6645  13.52$  18.91$  19.02$
  Q  0.6645  12.4$  18.85$  17.97$
  Q  -1.3290  12.97$  19.23$  18.46$
  Q  0.6645  15.9$  20.77$  6.5$
  Q  0.6645  15.88$  19.43$  5.7$
  Q  -1.3290  15.63$  19.97$  6.33$
  Q  0.6645  16.08$  19.93$  14.59$
  Q  0.6645  16.04$  20.97$  15.79$
  Q  -1.3290  15.79$  20.32$  15.31$
  Q  0.6645  18.55$  17.3$  14.89$
  Q  0.6645  18.36$  18.73$  14.37$
  Q  -1.3290  18.81$  18.07$  14.62$
  Q  0.6645  18.21$  15.36$  9.11$
  Q  0.6645  18.27$  13.98$  8.67$
  Q  -1.3290  17.87$  14.69$  8.85$
  Q  0.6645  7.04$  21.83$  10.1$
  Q  0.6645  6.78$  20.56$  9.17$
  Q  -1.3290  6.76$  21.03$  9.91$
  Q  0.6645  15.76$  12.79$  5.33$
  Q  0.6645  15.64$  13.44$  3.9$
  Q  -1.3290  15.58$  12.84$  4.5$
  Q  0.6645  11.96$  19.38$  5.33$
  Q  0.6645  10.64$  19.06$  4.52$
  Q  -1.3290  11.43$  19.32$  4.63$
  Q  0.6645  4.85$  6.51$  9.24$
  Q  0.6645  5.06$  5.16$  8.34$
  Q  -1.3290  5.28$  5.88$  8.8$
  Q  0.6645  17.81$  4.26$  10.48$
  Q  0.6645  18.39$  3.07$  11.38$
  Q  -1.3290  18.05$  3.47$  10.7$
  Q  0.6645  11$  7.81$  1.83$
  Q  0.6645  10.01$  8.62$  1.17$
  Q  -1.3290  10.44$  7.91$  1.3$
  Q  0.6645  8.82$  13.34$  1.35$
  Q  0.6645  8.53$  14.82$  1.12$
  Q  -1.3290  8.66$  14.01$  0.88$
  Q  0.6645  12.66$  4.61$  16.12$
  Q  0.6645  12.32$  4.53$  14.62$
  Q  -1.3290  12.23$  4.34$  15.42$
  Q  0.6645  10.35$  12.78$  6.19$
  Q  0.6645  10.1$  13.67$  4.98$
  Q  -1.3290  10.18$  12.94$  5.37$
  Q  0.6645  19.28$  10.22$  6.05$
  Q  0.6645  20.15$  10.42$  4.9$
  Q  -1.3290  19.94$  10.58$  5.68$
  Q  0.6645  8.1$  13.52$  20.67$
  Q  0.6645  7.17$  13.19$  19.55$
  Q  -1.3290  7.89$  13.16$  19.98$
  Q  0.6645  8.9$  11.16$  2.1$
  Q  0.6645  8.97$  12.25$  3.26$
  Q  -1.3290  9.19$  11.88$  2.51$
  Q  0.6645  11.82$  1.01$  11.21$
  Q  0.6645  13.04$  0.16$  11.56$
  Q  -1.3290  12.55$  0.63$  11.07$
  Q  0.6645  5.98$  17$  15.88$
  Q  0.6645  5.95$  18.56$  16.01$
  Q  -1.3290  6.28$  17.79$  15.82$
  Q  0.6645  7.88$  9.97$  14.19$
  Q  0.6645  8.97$  9.59$  15.24$
  Q  -1.3290  8.34$  9.47$  14.65$
  Q  0.6645  17.56$  20.38$  13.33$
  Q  0.6645  16.76$  19.59$  12.17$
  Q  -1.3290  17.08$  19.76$  13$
  Q  0.6645  10.27$  7.08$  16.55$
  Q  0.6645  9.82$  7.51$  17.97$
  Q  -1.3290  10.32$  7.14$  17.38$
  Q  0.6645  4.71$  5.08$  14.05$
  Q  0.6645  4.09$  6.23$  12.91$
  Q  -1.3290  4.67$  5.62$  13.34$
  Q  0.6645  10.24$  4.88$  18.57$
  Q  0.6645  11.4$  4.95$  19.36$
  Q  -1.3290  10.79$  4.56$  19.05$
  Q  0.6645  5.81$  17.12$  5.61$
  Q  0.6645  6.21$  18.25$  4.6$
  Q  -1.3290  6.34$  17.68$  5.22$
  Q  0.6645  10.83$  15.56$  4.34$
  Q  0.6645  9.45$  16.05$  4.21$
  Q  -1.3290  10.01$  15.45$  4.18$
  Q  0.6645  11.14$  10.61$  15.94$
  Q  0.6645  9.77$  10.78$  16.61$
  Q  -1.3290  10.44$  10.35$  16.33$
  Q  0.6645  12.24$  15.33$  20.81$
  Q  0.6645  13.31$  16.28$  20.61$
  Q  -1.3290  12.59$  15.98$  20.43$
  Q  0.6645  11.82$  22.01$  9.39$
  Q  0.6645  12.08$  21.35$  7.91$
  Q  -1.3290  11.65$  21.65$  8.62$
  Q  0.6645  15.02$  6.35$  6.63$
  Q  0.6645  13.55$  6.27$  6.61$
  Q  -1.3290  14.32$  5.95$  6.69$
  Q  0.6645  20.29$  8.04$  16.01$
  Q  0.6645  18.93$  7.4$  15.72$
  Q  -1.3290  19.71$  7.4$  15.97$
  Q  0.6645  9.17$  6.21$  14.79$
  Q  0.6645  9.34$  7.77$  14.81$
  Q  -1.3290  9.59$  6.96$  14.76$
  Q  0.6645  7.34$  18.98$  7.81$
  Q  0.6645  6.17$  18.58$  8.71$
  Q  -1.3290  6.98$  18.62$  8.46$
  Q  0.6645  6.36$  19.97$  12.71$
  Q  0.6645  5.79$  20.96$  11.73$
  Q  -1.3290  5.92$  20.67$  12.51$
  Q  0.6645  15.66$  7.41$  19.41$
  Q  0.6645  14.54$  8.42$  18.7$
  Q  -1.3290  15.32$  8.13$  19.04$
  Q  0.6645  -0.32$  13.53$  10.48$
  Q  0.6645  -0.19$  14.98$  10.22$
  Q  -1.3290  0.1$  14.24$  10.49$
  Q  0.6645  13.75$  19.91$  6.66$
  Q  0.6645  12.94$  18.73$  7.26$
  Q  -1.3290  13.03$  19.46$  6.86$
  Q  0.6645  4.95$  13.36$  18.83$
  Q  0.6645  5.48$  14.12$  17.59$
  Q  -1.3290  5.47$  13.55$  18.2$
  Q  0.6645  11.98$  12.54$  20.65$
  Q  0.6645  12.81$  11.38$  20.32$
  Q  -1.3290  12.21$  11.91$  20.16$
  Q  0.6645  16.32$  1.6$  7.36$
  Q  0.6645  15.18$  2.29$  7.78$
  Q  -1.3290  15.63$  1.97$  7.21$
  Q  0.6645  19.36$  7.63$  7.06$
  Q  0.6645  19.75$  8.05$  8.51$
  Q  -1.3290  19.24$  7.92$  7.84$
  Q  0.6645  17.46$  10.31$  4.28$
  Q  0.6645  17.35$  9.01$  5.18$
  Q  -1.3290  17.29$  9.83$  4.98$
  Q  0.6645  17.98$  6.39$  10.3$
  Q  0.6645  18.65$  6.5$  8.91$
  Q  -1.3290  18.58$  6.24$  9.7$
  Q  0.6645  11.7$  16.78$  7.51$
  Q  0.6645  12.79$  16.34$  6.58$
  Q  -1.3290  12.47$  16.65$  7.28$
  Q  0.6645  7.12$  8.04$  3.71$
  Q  0.6645  6.07$  8.35$  2.55$
  Q  -1.3290  6.65$  8.54$  3.17$
  Q  0.6645  -0.21$  9.65$  6.33$
  Q  0.6645  0.56$  8.32$  5.83$
  Q  -1.3290  0.46$  9.11$  6.21$
  Q  0.6645  3.92$  16.15$  13.19$
  Q  0.6645  2.55$  16.09$  13.93$
  Q  -1.3290  3.35$  15.91$  13.79$
  Q  0.6645  9.3$  18.15$  3.87$
  Q  0.6645  8.27$  18.04$  5.11$
  Q  -1.3290  9.05$  17.98$  4.7$
  Q  0.6645  14.28$  5.67$  8.63$
  Q  0.6645  15.02$  6.31$  9.86$
  Q  -1.3290  14.54$  5.76$  9.42$
  Q  0.6645  9.97$  3.66$  11.55$
  Q  0.6645  10.51$  3.43$  10.14$
  Q  -1.3290  10.44$  3.85$  10.86$
  Q  0.6645  4.96$  11.3$  9.04$
  Q  0.6645  4.08$  11$  10.26$
  Q  -1.3290  4.34$  10.92$  9.44$
  Q  0.6645  2.47$  11.29$  8.57$
  Q  0.6645  1.22$  12.16$  8$
  Q  -1.3290  1.71$  11.71$  8.58$
  Q  0.6645  11.02$  2.36$  5.01$
  Q  0.6645  12.34$  2.01$  5.66$
  Q  -1.3290  11.79$  2.53$  5.32$
  Q  0.6645  18.92$  13.76$  15.42$
  Q  0.6645  18.85$  12.37$  16.09$
  Q  -1.3290  19.15$  13.15$  15.97$
  Q  0.6645  4.36$  1.39$  10.14$
  Q  0.6645  5.1$  2.81$  10.12$
  Q  -1.3290  4.53$  2.21$  9.88$
  Q  0.6645  2.33$  13.8$  9.13$
  Q  0.6645  3.19$  13.46$  7.87$
  Q  -1.3290  2.83$  14.01$  8.44$
  Q  0.6645  17.72$  15.43$  16.01$
  Q  0.6645  17.22$  15$  14.67$
  Q  -1.3290  17.77$  15.38$  15.19$
  Q  0.6645  9.46$  5.59$  7.74$
  Q  0.6645  10.66$  4.91$  8.39$
  Q  -1.3290  10.22$  5.57$  8.11$
  Q  0.6645  12.83$  14.08$  3.47$
  Q  0.6645  12.85$  14.39$  4.99$
  Q  -1.3290  12.75$  14.59$  4.18$
  Q  0.6645  5.84$  0.85$  13.17$
  Q  0.6645  5.09$  2.13$  13.11$
  Q  -1.3290  5.7$  1.65$  13.39$
  Q  0.6645  19.24$  14.76$  10.8$
  Q  0.6645  19.66$  16.06$  11.45$
  Q  -1.3290  19.61$  15.5$  10.82$
  Q  0.6645  18.84$  14.36$  19.71$
  Q  0.6645  17.25$  14.49$  19.91$
  Q  -1.3290  18.1$  14.51$  20.1$
*
