! NoMOPrint PrintBasis #MINIPRINT SMALLPRINT LARGEPRINT
! ALLPOP XYZFILE
#! BP86 3-21G   TightSCF
! ENGRAD
! B3LYP NormalPNO PModel #DecontractAux
#! VerySlowConv 
 %maxcore 5000
 %scf  maxiter   500  end 

%pal
    nprocs 32
end

%basis
    NewGTO O    # New basis for oxygen
        "aug-cc-pVTZ"
    end
    NewGTO C    # New basis for carbon
        "aug-cc-pVTZ"
    end
    NewGTO H    # New basis for hydrogen
        "cc-pVTZ"
    end
end

* xyz 0   1
  C  10.99  10.53  8.46  #1
  H  12.09  10.47  8.37  #2
  H  10.83  11.42  7.83  #3
  C  10.36  10.68  9.85  #4
  H  9.48  11.25  9.74  #5
  H  10.2  9.69  10.21  #6
  C  11.27  11.43  10.88  #7
  H  11.05  12.49  10.68  #8
  H  12.32  11.19  10.65  #9
  C  10.89  11.12  12.36  #10
  H  10.92  10.03  12.61  #11
  H  9.83  11.36  12.41  #12
  O  11.71  11.81  13.28  #13
  H  11.54  11.56  14.2  #14
  O  10.43  9.3  7.86  #15
  H  9.54  9.52  7.6  #16
  O  14.67  11.44  13.34  #17
  H  14.06  11  12.71  #18
  H  15.34  10.79  13.65  #19
  O  6.99  9.04  10.36  #20
  H  7.64  8.66  10.99  #21
  H  6.18  8.49  10.5  #22
  O  12.39  7.46  6.98  #23
  H  12.76  7.14  7.79  #24
  H  11.78  8.14  7.3  #25
  O  10.89  10.46  16.19  #26
  H  11.54  9.98  15.69  #27
  H  10.03  10.3  15.79  #28
  O  8.25  9.76  5.57  #29
  H  9.05  9.39  5.1  #30
  H  8  10.61  5.16  #31
  O  17.21  12.76  12.6  #32
  H  17.29  13.75  12.74  #33
  H  16.29  12.62  12.7  #34
  O  9.83  11.32  3.25  #35
  H  9.92  11.86  4.04  #36
  H  8.86  11.22  3.12  #37
  O  7.81  12.58  6.02  #38
  H  8.51  13.06  6.54  #39
  H  7.48  11.97  6.75  #40
  O  14.02  5.43  7.8  #41
  H  14.15  5.19  6.86  #42
  H  13.86  4.66  8.38  #43
  O  13.81  9.41  11.59  #44
  H  14.47  9.03  12.21  #45
  H  14.34  9.9  10.97  #46
  O  4.94  7.32  10.26  #47
  H  4.81  7.55  9.33  #48
  H  4.27  7.78  10.76  #49
  O  7.67  7.72  2.59  #50
  H  6.87  8.2  2.65  #51
  H  8.26  8.27  3.13  #52
  O  10.28  8.29  3.79  #53
  H  10.69  7.54  4.29  #54
  H  11.02  8.93  3.64  #55
  O  6.97  8.28  7.44  #56
  H  7.18  8.56  8.35  #57
  H  7.45  8.81  6.72  #58
  O  15.24  8.65  14.84  #59
  H  15.85  8.46  14.09  #60
  H  15.72  9.21  15.42  #61
  O  9.86  14.86  12.36  #62
  H  9.31  14.21  12.79  #63
  H  10.61  14.33  12.13  #64
  O  14  13.02  15.59  #65
  H  13.09  12.88  15.93  #66
  H  14.1  12.47  14.78  #67
  O  5.96  11.72  11.39  #68
  H  6.68  11.11  11.22  #69
  H  5.98  11.87  12.32  #70
  O  7.15  11.25  8.25  #71
  H  7.19  12.1  8.74  #72
  H  7.24  10.65  8.98  #73
  O  8.1  9.72  14.79  #74
  H  7.94  9.3  13.94  #75
  H  7.29  9.64  15.31  #76
  O  14.82  8.38  6.11  #77
  H  13.97  8.16  6.29  #78
  H  15.27  7.6  6.42  #79
  O  12.72  13.77  11.79  #80
  H  12.51  13.08  12.55  #81
  H  12.86  14.69  12.12  #82
  O  9.81  13.86  7.85  #83
  H  10.75  13.98  8.09  #84
  H  9.51  14.75  8.13  #85
  O  10.76  7.28  13.52  #86
  H  11.29  7.56  12.8  #87
  H  10.59  6.37  13.5  #88
  O  10.92  13.3  5.22  #89
  H  11.81  12.88  5.28  #90
  H  10.68  13.44  6.11  #91
  O  10.6  5.86  5.54  #92
  H  10.87  4.92  5.52  #93
  H  11.34  6.32  5.96  #94
  O  7.26  11.45  3.21  #95
  H  6.62  10.89  2.77  #96
  H  6.69  12.18  3.5  #97
  O  12.7  8.59  15.36  #98
  H  13.64  8.62  15.02  #99
  H  12.11  8.03  14.82  #100
  O  8.1  7.98  12.63  #101
  H  7.68  7.11  12.9  #102
  H  9.01  7.8  12.54  #103
  O  12.36  11.15  18.66  #104
  H  11.56  11.03  19.15  #105
  H  12.16  11.28  17.76  #106
  Q  0.6645  7.87$  20.49$  12.45$
  Q  0.6645  7.94$  21.41$  13.68$
  Q  -1.3290  8.26$  20.97$  13$
  Q  0.6645  9.94$  10.47$  21.11$
  Q  0.6645  9.37$  11.63$  20.25$
  Q  -1.3290  9.96$  11.26$  20.72$
  Q  0.6645  15.86$  13.66$  1.16$
  Q  0.6645  15.24$  13.32$  -0.33$
  Q  -1.3290  15.79$  13.61$  0.29$
  Q  0.6645  13.94$  2.62$  16.67$
  Q  0.6645  15.24$  3$  17.49$
  Q  -1.3290  14.36$  3.05$  17.26$
  Q  0.6645  11.6$  14.31$  17.66$
  Q  0.6645  10.84$  14.5$  16.3$
  Q  -1.3290  11.26$  14.06$  16.91$
  Q  0.6645  8.48$  1.68$  9.63$
  Q  0.6645  7.41$  2.21$  8.78$
  Q  -1.3290  8$  1.65$  8.94$
  Q  0.6645  17.91$  12.69$  10.52$
  Q  0.6645  18.24$  12.5$  8.97$
  Q  -1.3290  18.37$  12.46$  9.83$
  Q  0.6645  17.31$  6.94$  18.7$
  Q  0.6645  15.81$  6.72$  19.26$
  Q  -1.3290  16.69$  6.67$  19.26$
  Q  0.6645  8.07$  15.05$  9.24$
  Q  0.6645  7.62$  16.43$  8.43$
  Q  -1.3290  8.17$  15.81$  8.77$
  Q  0.6645  10.69$  21.73$  13.04$
  Q  0.6645  11.96$  20.93$  13.36$
  Q  -1.3290  11.53$  21.6$  13.1$
  Q  0.6645  10.21$  15.24$  14.18$
  Q  0.6645  10.25$  16.5$  15.02$
  Q  -1.3290  10.52$  15.75$  14.75$
  Q  0.6645  6.75$  12.04$  14.57$
  Q  0.6645  5.2$  12.31$  14.74$
  Q  -1.3290  5.9$  12.02$  14.37$
  Q  0.6645  12.78$  4.97$  19.74$
  Q  0.6645  13.48$  3.75$  19.01$
  Q  -1.3290  13.18$  4.21$  19.68$
  Q  0.6645  2.99$  12.09$  9.4$
  Q  0.6645  1.96$  11.98$  8.35$
  Q  -1.3290  2.67$  11.75$  8.73$
  Q  0.6645  4.15$  2.51$  3.91$
  Q  0.6645  5.57$  2.97$  4.28$
  Q  -1.3290  4.99$  2.41$  4$
  Q  0.6645  3.02$  8.37$  3.65$
  Q  0.6645  2.24$  7.47$  2.53$
  Q  -1.3290  2.9$  7.87$  2.92$
  Q  0.6645  12.23$  16.93$  5.47$
  Q  0.6645  12.1$  18.36$  5.55$
  Q  -1.3290  12.32$  17.65$  5.86$
  Q  0.6645  17.31$  9.58$  16.98$
  Q  0.6645  16.92$  10.97$  17.39$
  Q  -1.3290  17.04$  10.35$  16.82$
  Q  0.6645  15.14$  10.16$  6.61$
  Q  0.6645  15.06$  10.92$  7.93$
  Q  -1.3290  15.17$  10.83$  7.11$
  Q  0.6645  5.85$  16.72$  6.88$
  Q  0.6645  6.54$  18.08$  7.16$
  Q  -1.3290  6.3$  17.3$  7.32$
  Q  0.6645  5.33$  9.18$  1.32$
  Q  0.6645  4.61$  8.72$  2.48$
  Q  -1.3290  5.16$  9.21$  2.12$
  Q  0.6645  9.16$  5.34$  17.27$
  Q  0.6645  8.46$  4.21$  17.93$
  Q  -1.3290  9.11$  4.55$  17.49$
  Q  0.6645  13.92$  2.55$  7.65$
  Q  0.6645  14.82$  1.46$  6.9$
  Q  -1.3290  14.27$  2.16$  6.98$
  Q  0.6645  13.45$  12.2$  19.71$
  Q  0.6645  13.41$  13.72$  19.79$
  Q  -1.3290  13.74$  12.98$  19.9$
  Q  0.6645  18.31$  16.05$  5.47$
  Q  0.6645  19.68$  16.36$  4.71$
  Q  -1.3290  19.04$  15.89$  5.05$
  Q  0.6645  8.46$  7.51$  15.31$
  Q  0.6645  8.06$  6.1$  15.44$
  Q  -1.3290  8.48$  6.78$  15.68$
  Q  0.6645  14.35$  10.21$  0.71$
  Q  0.6645  14.03$  8.77$  0.53$
  Q  -1.3290  14.54$  9.42$  0.58$
  Q  0.6645  16.92$  13.84$  17.01$
  Q  0.6645  15.49$  13.8$  16.63$
  Q  -1.3290  16.2$  14.18$  16.78$
  Q  0.6645  11.8$  4.35$  11.99$
  Q  0.6645  13.16$  4.94$  12.53$
  Q  -1.3290  12.52$  4.84$  11.99$
  Q  0.6645  21.23$  10.12$  8.6$
  Q  0.6645  21.1$  9.23$  7.45$
  Q  -1.3290  21.06$  9.4$  8.25$
  Q  0.6645  11.94$  2.61$  6.22$
  Q  0.6645  10.51$  2.75$  5.88$
  Q  -1.3290  11.28$  3.05$  6$
  Q  0.6645  11.8$  15.59$  3.35$
  Q  0.6645  11.71$  14.89$  4.76$
  Q  -1.3290  12.04$  15.41$  4.18$
  Q  0.6645  8.8$  16.6$  5.85$
  Q  0.6645  9.87$  17.52$  6.46$
  Q  -1.3290  9.29$  17.29$  5.87$
  Q  0.6645  12.34$  6.54$  11.11$
  Q  0.6645  12.97$  7.99$  11.19$
  Q  -1.3290  12.36$  7.39$  11.04$
  Q  0.6645  13.06$  15.1$  16.26$
  Q  0.6645  14.03$  16.19$  16.04$
  Q  -1.3290  13.34$  15.85$  16.41$
  Q  0.6645  8.45$  5.51$  20.82$
  Q  0.6645  8.2$  6.77$  21.72$
  Q  -1.3290  8.05$  5.99$  21.41$
  Q  0.6645  2.69$  9.54$  11.35$
  Q  0.6645  2.72$  10.08$  9.87$
  Q  -1.3290  2.92$  9.58$  10.52$
  Q  0.6645  14.4$  12.14$  2.49$
  Q  0.6645  13.27$  12.25$  1.37$
  Q  -1.3290  13.9$  11.91$  1.8$
  Q  0.6645  18.44$  10.8$  15.03$
  Q  0.6645  18.11$  11.56$  13.59$
  Q  -1.3290  18.57$  11.18$  14.26$
  Q  0.6645  8.26$  11.46$  18$
  Q  0.6645  7.75$  10.29$  18.85$
  Q  -1.3290  8$  11.1$  18.71$
  Q  0.6645  3.46$  6.03$  14.19$
  Q  0.6645  3.16$  5.41$  15.6$
  Q  -1.3290  3.14$  5.47$  14.72$
  Q  0.6645  18.74$  7.13$  8.91$
  Q  0.6645  19.49$  8.38$  8.27$
  Q  -1.3290  18.8$  7.89$  8.55$
  Q  0.6645  16.33$  4.93$  3.59$
  Q  0.6645  16.11$  4.32$  4.98$
  Q  -1.3290  16.6$  4.57$  4.33$
  Q  0.6645  9.97$  16.85$  12.27$
  Q  0.6645  9.75$  18.19$  11.71$
  Q  -1.3290  9.77$  17.7$  12.35$
  Q  0.6645  10.16$  8.78$  18.26$
  Q  0.6645  9.23$  7.73$  17.8$
  Q  -1.3290  9.75$  8.09$  18.37$
  Q  0.6645  8.15$  13.56$  17.31$
  Q  0.6645  9.57$  13.04$  17.05$
  Q  -1.3290  8.71$  13.02$  16.98$
  Q  0.6645  16.83$  17.89$  3.74$
  Q  0.6645  15.61$  18.18$  4.7$
  Q  -1.3290  16.03$  17.74$  4.12$
  Q  0.6645  15.07$  18.84$  15.74$
  Q  0.6645  16.04$  19.48$  16.76$
  Q  -1.3290  15.53$  18.87$  16.45$
  Q  0.6645  8.52$  16.83$  18.01$
  Q  0.6645  8.38$  18.34$  17.99$
  Q  -1.3290  8.74$  17.61$  18.2$
  Q  0.6645  10.9$  14.48$  1.23$
  Q  0.6645  11.12$  15.85$  0.84$
  Q  -1.3290  10.78$  15.29$  1.32$
  Q  0.6645  7.73$  18.55$  15.33$
  Q  0.6645  8.22$  18.38$  13.86$
  Q  -1.3290  7.82$  18.18$  14.57$
  Q  0.6645  13.43$  9.21$  3.75$
  Q  0.6645  12.96$  10.31$  2.8$
  Q  -1.3290  12.88$  9.73$  3.42$
  Q  0.6645  13.04$  0.65$  12.01$
  Q  0.6645  13.2$  1.49$  10.76$
  Q  -1.3290  13.47$  0.97$  11.37$
  Q  0.6645  19.53$  13.09$  14.49$
  Q  0.6645  18.79$  14.33$  14.43$
  Q  -1.3290  19.37$  13.83$  14.76$
  Q  0.6645  4.28$  10.06$  13.5$
  Q  0.6645  2.83$  10.38$  13.71$
  Q  -1.3290  3.44$  9.87$  13.52$
  Q  0.6645  9.24$  16.32$  2.25$
  Q  0.6645  8.96$  17.29$  3.5$
  Q  -1.3290  8.89$  16.98$  2.7$
  Q  0.6645  2.15$  14.22$  6.22$
  Q  0.6645  3.32$  15.1$  5.48$
  Q  -1.3290  2.56$  14.94$  5.84$
  Q  0.6645  12.38$  3.09$  9.25$
  Q  0.6645  13.44$  3.7$  10.26$
  Q  -1.3290  13.2$  3.3$  9.52$
  Q  0.6645  7.21$  20.15$  6.55$
  Q  0.6645  7.38$  20.22$  8.13$
  Q  -1.3290  7.49$  19.9$  7.36$
  Q  0.6645  4.99$  1.45$  6.13$
  Q  0.6645  5.5$  2.12$  7.52$
  Q  -1.3290  5.44$  1.53$  6.87$
  Q  0.6645  17.89$  18.42$  7.54$
  Q  0.6645  16.64$  17.82$  6.94$
  Q  -1.3290  17.48$  17.91$  7.03$
  Q  0.6645  4.89$  5.6$  10.81$
  Q  0.6645  4.01$  4.35$  10.75$
  Q  -1.3290  4.75$  4.76$  10.79$
  Q  0.6645  11.47$  19.1$  15.17$
  Q  0.6645  11.38$  18.91$  13.64$
  Q  -1.3290  11.74$  19.16$  14.36$
  Q  0.6645  15.55$  8.62$  3.03$
  Q  0.6645  15.7$  8.6$  4.57$
  Q  -1.3290  15.63$  8.97$  3.79$
  Q  0.6645  7.15$  16.26$  1.95$
  Q  0.6645  6.24$  15.24$  1.28$
  Q  -1.3290  6.8$  15.5$  1.82$
  Q  0.6645  11.01$  12.21$  1.98$
  Q  0.6645  10.82$  12.27$  0.46$
  Q  -1.3290  11.19$  12.43$  1.21$
  Q  0.6645  16.89$  17.13$  16.9$
  Q  0.6645  16.92$  15.94$  17.84$
  Q  -1.3290  17.21$  16.66$  17.49$
  Q  0.6645  16.51$  7.6$  11.79$
  Q  0.6645  16.75$  9.13$  12.1$
  Q  -1.3290  16.38$  8.35$  12.18$
  Q  0.6645  1.82$  7.3$  12.47$
  Q  0.6645  2.79$  8.12$  13.15$
  Q  -1.3290  2.56$  7.43$  12.75$
  Q  0.6645  6.69$  19.59$  10.89$
  Q  0.6645  6.74$  18.3$  11.68$
  Q  -1.3290  6.79$  19.12$  11.57$
  Q  0.6645  10.04$  4.36$  1.4$
  Q  0.6645  11.53$  4.19$  1.82$
  Q  -1.3290  10.89$  4.49$  1.4$
  Q  0.6645  3.27$  8.03$  7.29$
  Q  0.6645  4.74$  8.55$  7.1$
  Q  -1.3290  4.12$  7.99$  7.29$
  Q  0.6645  16.52$  6.3$  15.18$
  Q  0.6645  17.31$  6.3$  13.85$
  Q  -1.3290  17.21$  6.33$  14.68$
  Q  0.6645  3.03$  16.92$  14.22$
  Q  0.6645  3.28$  15.58$  13.35$
  Q  -1.3290  3.37$  16.12$  14.02$
  Q  0.6645  14.12$  21.27$  10.22$
  Q  0.6645  14.66$  19.89$  10.04$
  Q  -1.3290  14.27$  20.57$  9.79$
  Q  0.6645  7.94$  14.66$  19.13$
  Q  0.6645  6.76$  15.36$  18.25$
  Q  -1.3290  7.59$  15.03$  18.45$
  Q  0.6645  11.3$  6.63$  19.72$
  Q  0.6645  12.6$  7.2$  19.26$
  Q  -1.3290  12.12$  6.83$  19.8$
  Q  0.6645  13.03$  14.1$  9.09$
  Q  0.6645  12.48$  15.52$  8.75$
  Q  -1.3290  12.56$  14.7$  8.64$
  Q  0.6645  14.34$  13.62$  10.62$
  Q  0.6645  15.58$  14.34$  9.97$
  Q  -1.3290  14.89$  13.83$  9.99$
  Q  0.6645  16.42$  10.64$  3.86$
  Q  0.6645  17.35$  11.3$  2.72$
  Q  -1.3290  17.05$  11.15$  3.51$
  Q  0.6645  17.33$  15.9$  11.17$
  Q  0.6645  17.03$  16$  9.78$
  Q  -1.3290  16.78$  15.9$  10.55$
  Q  0.6645  18.61$  9.22$  10.41$
  Q  0.6645  18.33$  10.65$  10.53$
  Q  -1.3290  18.21$  9.85$  10.73$
  Q  0.6645  10.31$  1.39$  10.84$
  Q  0.6645  9.05$  0.62$  11.44$
  Q  -1.3290  9.52$  1.29$  11.19$
  Q  0.6645  3.68$  12.01$  11.42$
  Q  0.6645  2.2$  12.55$  11.56$
  Q  -1.3290  3.01$  12.55$  11.27$
  Q  0.6645  6.89$  5.07$  0.71$
  Q  0.6645  5.81$  4.89$  1.76$
  Q  -1.3290  6.33$  4.62$  1.16$
  Q  0.6645  13.62$  3.84$  5.26$
  Q  0.6645  14$  4.85$  4.13$
  Q  -1.3290  14.05$  4.51$  4.92$
  Q  0.6645  0.15$  5.97$  5.59$
  Q  0.6645  1.59$  5.87$  6.29$
  Q  -1.3290  0.99$  6.13$  5.73$
  Q  0.6645  10.03$  8.36$  21.84$
  Q  0.6645  9.42$  8.45$  20.38$
  Q  -1.3290  9.52$  8.64$  21.22$
  Q  0.6645  4.96$  17.34$  9.11$
  Q  0.6645  4.05$  16.68$  10.27$
  Q  -1.3290  4.28$  17.25$  9.62$
  Q  0.6645  5.18$  17.19$  4.88$
  Q  0.6645  5.46$  15.65$  4.85$
  Q  -1.3290  5.09$  16.37$  5.13$
  Q  0.6645  9.14$  5.85$  7.17$
  Q  0.6645  7.78$  6.59$  7.45$
  Q  -1.3290  8.43$  6.01$  7.6$
  Q  0.6645  6.56$  16.01$  12.16$
  Q  0.6645  8.05$  16.31$  11.66$
  Q  -1.3290  7.17$  16.24$  11.62$
  Q  0.6645  12.67$  7.05$  0.85$
  Q  0.6645  13.17$  6.38$  -0.22$
  Q  -1.3290  13.21$  6.59$  0.55$
  Q  0.6645  12.95$  11.26$  4.57$
  Q  0.6645  13.82$  11.63$  5.82$
  Q  -1.3290  13.36$  11.75$  5.13$
  Q  0.6645  9.17$  5.6$  4.36$
  Q  0.6645  8.05$  6.17$  3.52$
  Q  -1.3290  8.47$  5.56$  3.88$
  Q  0.6645  20.28$  12.62$  4.89$
  Q  0.6645  19.88$  14.02$  5.5$
  Q  -1.3290  20.06$  13.2$  5.5$
  Q  0.6645  4.09$  5.81$  6.77$
  Q  0.6645  3.26$  4.5$  6.74$
  Q  -1.3290  3.86$  5.05$  6.5$
  Q  0.6645  11.1$  17.48$  20.49$
  Q  0.6645  9.71$  17.19$  19.89$
  Q  -1.3290  10.34$  17.16$  20.49$
  Q  0.6645  3.6$  10.03$  17.52$
  Q  0.6645  3.76$  10.99$  18.68$
  Q  -1.3290  3.88$  10.72$  17.9$
  Q  0.6645  18.8$  7.96$  17.09$
  Q  0.6645  17.64$  7.18$  16.58$
  Q  -1.3290  18.02$  7.74$  17.05$
  Q  0.6645  17.94$  16.14$  13.28$
  Q  0.6645  19.29$  15.53$  12.7$
  Q  -1.3290  18.41$  15.56$  12.83$
  Q  0.6645  10.6$  4.1$  20.51$
  Q  0.6645  10.12$  4.63$  19.15$
  Q  -1.3290  10.21$  4.66$  20$
  Q  0.6645  19.36$  14.24$  17.9$
  Q  0.6645  18.41$  14.5$  19.17$
  Q  -1.3290  18.69$  14.15$  18.41$
  Q  0.6645  8.3$  0.4$  15.97$
  Q  0.6645  8.42$  2.02$  15.59$
  Q  -1.3290  8.07$  1.18$  15.67$
  Q  0.6645  12.33$  16.31$  13.64$
  Q  0.6645  13.8$  16.6$  13.49$
  Q  -1.3290  13$  16.51$  13.2$
  Q  0.6645  14.25$  8.17$  18.21$
  Q  0.6645  13.2$  7.96$  17.12$
  Q  -1.3290  13.7$  7.72$  17.75$
  Q  0.6645  18.79$  5.7$  12.01$
  Q  0.6645  17.52$  4.93$  11.96$
  Q  -1.3290  18$  5.6$  11.88$
  Q  0.6645  14.69$  16.58$  6.96$
  Q  0.6645  14.27$  17.95$  7.07$
  Q  -1.3290  14.75$  17.33$  7.28$
  Q  0.6645  18.76$  14.87$  3.49$
  Q  0.6645  17.46$  14.6$  2.66$
  Q  -1.3290  18.3$  14.57$  2.84$
  Q  0.6645  10.58$  20.35$  9.56$
  Q  0.6645  12.01$  20.58$  9.26$
  Q  -1.3290  11.23$  20.83$  9.46$
  Q  0.6645  16.87$  19.77$  11.37$
  Q  0.6645  16.47$  18.39$  11.01$
  Q  -1.3290  16.85$  19.13$  10.87$
  Q  0.6645  5.22$  4.11$  12.56$
  Q  0.6645  4.81$  4.28$  14.03$
  Q  -1.3290  5.23$  3.93$  13.38$
  Q  0.6645  6.37$  7.68$  17.69$
  Q  0.6645  5.76$  9.01$  17.62$
  Q  -1.3290  6.34$  8.47$  17.43$
  Q  0.6645  14.92$  17.62$  18.02$
  Q  0.6645  15.46$  16.88$  19.16$
  Q  -1.3290  14.84$  17.25$  18.76$
  Q  0.6645  17.67$  16.12$  7.88$
  Q  0.6645  17.7$  14.58$  7.73$
  Q  -1.3290  17.75$  15.33$  8.17$
  Q  0.6645  15.38$  12.05$  9.8$
  Q  0.6645  16.2$  10.87$  9.64$
  Q  -1.3290  15.5$  11.24$  9.86$
  Q  0.6645  0.8$  8.06$  9.01$
  Q  0.6645  2.01$  7.83$  9.89$
  Q  -1.3290  1.32$  7.59$  9.45$
  Q  0.6645  14.96$  2.1$  12.25$
  Q  0.6645  16.25$  2.53$  12.04$
  Q  -1.3290  15.53$  2.66$  12.33$
  Q  0.6645  8.39$  3.75$  2.7$
  Q  0.6645  9.61$  2.85$  2.57$
  Q  -1.3290  8.83$  3.17$  2.35$
  Q  0.6645  4.33$  15.21$  18.35$
  Q  0.6645  4.84$  15.95$  17.07$
  Q  -1.3290  4.82$  15.34$  17.69$
  Q  0.6645  18.38$  9.97$  4.89$
  Q  0.6645  18.18$  8.91$  5.9$
  Q  -1.3290  18.66$  9.43$  5.45$
  Q  0.6645  9.8$  3.72$  15.86$
  Q  0.6645  9.72$  3.55$  14.33$
  Q  -1.3290  9.73$  3.29$  15.13$
  Q  0.6645  3.55$  9.89$  5.7$
  Q  0.6645  2.1$  9.81$  5.46$
  Q  -1.3290  2.89$  9.81$  5.2$
  Q  0.6645  11.09$  0.91$  8.84$
  Q  0.6645  10.07$  2.07$  8.36$
  Q  -1.3290  10.8$  1.72$  8.64$
  Q  0.6645  15.26$  4.56$  13.22$
  Q  0.6645  15.2$  5.54$  14.34$
  Q  -1.3290  15.13$  5.33$  13.57$
  Q  0.6645  12.2$  17.59$  16.66$
  Q  0.6645  10.76$  17.79$  17.18$
  Q  -1.3290  11.56$  18.03$  16.95$
  Q  0.6645  13.97$  10.03$  19.24$
  Q  0.6645  15.6$  10.05$  19.04$
  Q  -1.3290  14.8$  9.74$  19.13$
  Q  0.6645  21.03$  9.3$  12.49$
  Q  0.6645  20.34$  10.52$  13.25$
  Q  -1.3290  20.98$  10.09$  12.87$
  Q  0.6645  11.08$  6.46$  1.11$
  Q  0.6645  10.65$  7.62$  2.04$
  Q  -1.3290  10.94$  7.28$  1.31$
  Q  0.6645  9.65$  4.75$  11.63$
  Q  0.6645  9.64$  3.18$  12.01$
  Q  -1.3290  9.77$  4.05$  12.13$
  Q  0.6645  8.77$  13.79$  21.26$
  Q  0.6645  9.57$  15.03$  21.23$
  Q  -1.3290  9.24$  14.39$  20.89$
  Q  0.6645  13.93$  18.86$  14.14$
  Q  0.6645  14.97$  19.88$  13.75$
  Q  -1.3290  14.7$  19.11$  13.99$
  Q  0.6645  20.26$  11.92$  9.56$
  Q  0.6645  21.43$  12.74$  8.96$
  Q  -1.3290  21.07$  12.02$  9.24$
  Q  0.6645  6.71$  13.59$  4.87$
  Q  0.6645  6.48$  14.27$  3.45$
  Q  -1.3290  6.27$  13.92$  4.21$
  Q  0.6645  5.24$  5.35$  18.09$
  Q  0.6645  6.63$  5.16$  18.84$
  Q  -1.3290  5.96$  5.6$  18.5$
  Q  0.6645  12.79$  19$  20.79$
  Q  0.6645  13.61$  17.94$  19.94$
  Q  -1.3290  13.07$  18.21$  20.59$
  Q  0.6645  8.41$  1.87$  6.96$
  Q  0.6645  8.18$  2.65$  5.71$
  Q  -1.3290  8.6$  2.12$  6.17$
  Q  0.6645  17.48$  7.1$  7.21$
  Q  0.6645  17.47$  6.18$  6.14$
  Q  -1.3290  17.22$  6.84$  6.47$
  Q  0.6645  3.83$  6.15$  3.08$
  Q  0.6645  3.61$  4.67$  3.03$
  Q  -1.3290  4.04$  5.36$  2.91$
  Q  0.6645  17.89$  5.33$  9.77$
  Q  0.6645  18.95$  4.79$  8.66$
  Q  -1.3290  18.24$  5.19$  8.96$
  Q  0.6645  2.67$  14.79$  11.03$
  Q  0.6645  2.23$  16.28$  11.25$
  Q  -1.3290  2.78$  15.62$  11.27$
  Q  0.6645  10.16$  18.17$  9.37$
  Q  0.6645  8.73$  18.14$  9.71$
  Q  -1.3290  9.49$  18.45$  9.76$
  Q  0.6645  4.03$  11.18$  7.56$
  Q  0.6645  5.44$  10.9$  7.4$
  Q  -1.3290  4.67$  10.81$  7.2$
  Q  0.6645  3.64$  11.95$  4.87$
  Q  0.6645  4.54$  13.05$  4.33$
  Q  -1.3290  3.8$  12.69$  4.56$
  Q  0.6645  16.07$  16.8$  14.41$
  Q  0.6645  15.93$  15.3$  15.02$
  Q  -1.3290  15.67$  16.06$  14.63$
  Q  0.6645  4.29$  13.94$  16.23$
  Q  0.6645  3.77$  12.47$  16.58$
  Q  -1.3290  4$  13.16$  16.07$
  Q  0.6645  7.22$  9.14$  21.82$
  Q  0.6645  6.57$  7.71$  21.44$
  Q  -1.3290  6.63$  8.56$  21.58$
  Q  0.6645  9.18$  6$  9.63$
  Q  0.6645  10.26$  6.55$  10.35$
  Q  -1.3290  9.6$  6.13$  10.34$
  Q  0.6645  17.31$  18.75$  14.39$
  Q  0.6645  18.3$  17.96$  15$
  Q  -1.3290  17.75$  18.06$  14.43$
  Q  0.6645  7.28$  4.68$  4.73$
  Q  0.6645  5.89$  4.43$  5.39$
  Q  -1.3290  6.66$  4.22$  5.14$
  Q  0.6645  6.87$  4.82$  13.74$
  Q  0.6645  8.3$  4.88$  13.26$
  Q  -1.3290  7.61$  5.2$  13.63$
  Q  0.6645  5.84$  14.11$  9.37$
  Q  0.6645  6.49$  13.11$  10.38$
  Q  -1.3290  6.45$  13.6$  9.64$
  Q  0.6645  14.99$  6.57$  9.18$
  Q  0.6645  16.3$  7.11$  9.26$
  Q  -1.3290  15.66$  6.76$  9.59$
  Q  0.6645  7.84$  13.99$  1.5$
  Q  0.6645  8.23$  12.47$  1.75$
  Q  -1.3290  8.11$  13.19$  1.3$
  Q  0.6645  13.17$  15.74$  18.68$
  Q  0.6645  11.83$  15.74$  19.42$
  Q  -1.3290  12.46$  15.38$  19.03$
  Q  0.6645  14.53$  6.24$  16.59$
  Q  0.6645  14.9$  4.71$  16.51$
  Q  -1.3290  14.99$  5.55$  16.35$
  Q  0.6645  12.77$  17.97$  9.14$
  Q  0.6645  12.14$  17.54$  7.75$
  Q  -1.3290  12.16$  17.74$  8.59$
  Q  0.6645  6.81$  16.55$  14.19$
  Q  0.6645  5.35$  15.93$  14.36$
  Q  -1.3290  6.18$  15.95$  14.15$
  Q  0.6645  8.4$  13.77$  14.95$
  Q  0.6645  7.4$  14.18$  13.84$
  Q  -1.3290  8.09$  13.76$  14.17$
  Q  0.6645  11.47$  18.83$  2.55$
  Q  0.6645  12.84$  18.34$  2.31$
  Q  -1.3290  12.23$  18.63$  2.78$
  Q  0.6645  11.49$  2.31$  15.44$
  Q  0.6645  12.12$  1.42$  14.48$
  Q  -1.3290  12.19$  1.9$  15.14$
  Q  0.6645  18.36$  12.64$  6.78$
  Q  0.6645  16.94$  12.12$  7.12$
  Q  -1.3290  17.64$  12.57$  7.21$
  Q  0.6645  15.37$  16.07$  4.82$
  Q  0.6645  13.91$  15.6$  4.89$
  Q  -1.3290  14.77$  15.56$  5.06$
  Q  0.6645  13.36$  20.57$  18.07$
  Q  0.6645  12.01$  19.69$  17.9$
  Q  -1.3290  12.51$  20.38$  18.03$
  Q  0.6645  17.22$  12.52$  18.68$
  Q  0.6645  15.63$  12.46$  19.1$
  Q  -1.3290  16.43$  12.19$  18.87$
  Q  0.6645  13.64$  17.63$  11.42$
  Q  0.6645  14.82$  17.16$  10.67$
  Q  -1.3290  14.22$  17.71$  10.85$
  Q  0.6645  0.7$  11.36$  13.65$
  Q  0.6645  1.49$  11.77$  15.04$
  Q  -1.3290  1.35$  11.44$  14.22$
  Q  0.6645  16.22$  3.09$  6.73$
  Q  0.6645  17.18$  3.99$  7.63$
  Q  -1.3290  16.96$  3.33$  7.14$
  Q  0.6645  6.91$  12.58$  21.52$
  Q  0.6645  6.94$  12.4$  19.96$
  Q  -1.3290  6.66$  12.68$  20.71$
  Q  0.6645  2.41$  16.47$  7.12$
  Q  0.6645  2.95$  17.25$  8.42$
  Q  -1.3290  2.48$  17.11$  7.7$
  Q  0.6645  15.36$  14.15$  3.91$
  Q  0.6645  16.32$  12.97$  3.52$
  Q  -1.3290  15.8$  13.62$  3.39$
  Q  0.6645  13.59$  5.01$  1.68$
  Q  0.6645  14.5$  3.9$  2.28$
  Q  -1.3290  13.86$  4.42$  2.26$
  Q  0.6645  7.09$  4.48$  8.64$
  Q  0.6645  6.13$  3.91$  9.64$
  Q  -1.3290  6.63$  3.86$  9$
*
