! NoMOPrint PrintBasis #MINIPRINT SMALLPRINT LARGEPRINT
! ALLPOP XYZFILE
#! BP86 3-21G   TightSCF
! ENGRAD
! B3LYP NormalPNO PModel #DecontractAux
#! VerySlowConv 
 %maxcore 5000
 %scf  maxiter   500  end 

%pal
    nprocs 32
end

%basis
    NewGTO O    # New basis for oxygen
        "aug-cc-pVTZ"
    end
    NewGTO C    # New basis for carbon
        "aug-cc-pVTZ"
    end
    NewGTO H    # New basis for hydrogen
        "cc-pVTZ"
    end
end

* xyz 0   1
  C  9.58  9.99  10.7  #1
  H  9.53  9.72  11.8  #2
  H  9.53  9.1  10.13  #3
  C  10.87  10.73  10.21  #4
  H  11.67  10.05  10.47  #5
  H  10.94  10.78  9.1  #6
  C  11.18  12.1  10.82  #7
  H  10.26  12.59  11.21  #8
  H  11.74  12.7  10.1  #9
  C  12.07  11.83  12.02  #10
  H  11.6  11.14  12.74  #11
  H  12.25  12.73  12.67  #12
  O  13.42  11.39  11.78  #13
  H  13.92  11.45  12.62  #14
  O  8.47  10.68  10.27  #15
  H  7.91  10.87  10.98  #16
  O  10.38  9.82  6.59  #17
  H  10.99  10.43  6.17  #18
  H  11.09  9.43  7.09  #19
  O  6.84  12.24  13.4  #20
  H  6.44  11.7  12.69  #21
  H  6.43  13.09  13.2  #22
  O  7.83  13  8.74  #23
  H  8.37  12.32  9.25  #24
  H  6.98  12.65  8.56  #25
  O  8.37  14.87  10.89  #26
  H  8.04  14.12  10.29  #27
  H  8.57  15.57  10.2  #28
  O  15.07  12.03  13.71  #29
  H  15.49  11.5  14.34  #30
  H  14.34  12.33  14.18  #31
  O  11.88  7.96  14.76  #32
  H  11.65  8.9  14.73  #33
  H  12.11  7.7  13.89  #34
  O  9.49  13.61  6.61  #35
  H  9.66  14.58  6.67  #36
  H  8.73  13.46  7.25  #37
  O  15.09  13.14  10.04  #38
  H  14.6  12.56  10.64  #39
  H  14.78  14.03  10.32  #40
  O  14.74  14.22  16.35  #41
  H  13.95  13.95  15.89  #42
  H  15.25  13.42  16.1  #43
  O  17.31  14.35  13.67  #44
  H  16.53  13.82  13.62  #45
  H  18  13.65  13.57  #46
  O  6.64  15.12  13.23  #47
  H  5.87  15.72  13.29  #48
  H  7.07  15.23  12.41  #49
  O  18.68  11.48  15.14  #50
  H  19.09  12.18  15.67  #51
  H  17.79  11.61  15.5  #52
  O  5.87  11.14  11.2  #53
  H  5.29  10.39  11.36  #54
  H  5.96  11.25  10.25  #55
  O  5.82  15.61  8.51  #56
  H  6.74  15.9  8.49  #57
  H  5.81  14.64  8.84  #58
  O  12.72  13.21  14.64  #59
  H  12.01  12.55  14.76  #60
  H  12.32  14.01  14.23  #61
  O  15.29  10.07  10.46  #62
  H  15.95  9.8  11.11  #63
  H  14.61  10.51  11  #64
  O  13.9  8.15  6.51  #65
  H  13.13  8.19  7.11  #66
  H  13.55  8.42  5.65  #67
  O  11.67  7.83  8.13  #68
  H  12.27  7.51  8.85  #69
  H  11.09  7.13  7.94  #70
  O  5.91  14.4  15.87  #71
  H  5.74  15.22  16.34  #72
  H  6.15  14.63  14.98  #73
  O  11.56  10.76  15.09  #74
  H  11.99  10.62  15.95  #75
  H  10.58  10.9  15.07  #76
  O  8.84  10.8  14.95  #77
  H  8.27  11.25  14.28  #78
  H  8.18  10.31  15.42  #79
  O  5.24  12.72  8.54  #80
  H  4.45  12.78  9.15  #81
  H  5.01  12.03  7.93  #82
  O  11.44  11.93  5.18  #83
  H  10.95  12.66  5.57  #84
  H  12.35  12.21  5.33  #85
  O  8.61  17.2  9.04  #86
  H  8.53  18.17  9.17  #87
  H  8.97  17.04  8.13  #88
  O  9.01  6.68  11.58  #89
  H  8.13  7  11.86  #90
  H  8.9  6.4  10.65  #91
  O  16.11  11.83  16.25  #92
  H  16.65  12.13  17.02  #93
  H  15.84  11.03  16.6  #94
  O  13.5  7.65  10.42  #95
  H  13.02  7.62  11.25  #96
  H  13.99  8.49  10.34  #97
  O  7.74  9.5  7.58  #98
  H  7.89  9.92  8.44  #99
  H  8.62  9.57  7.17  #100
  Q  0.6645  6.56$  19.46$  5.98$
  Q  0.6645  5.81$  18.14$  6.25$
  Q  -1.3290  6.18$  18.87$  6.46$
  Q  0.6645  4.41$  4.17$  9.77$
  Q  0.6645  3.03$  4.75$  10.3$
  Q  -1.3290  3.86$  4.52$  10.35$
  Q  0.6645  16.48$  16.94$  15.62$
  Q  0.6645  17.4$  16.3$  14.56$
  Q  -1.3290  17.23$  16.75$  15.25$
  Q  0.6645  1.48$  8.49$  7.32$
  Q  0.6645  1.36$  8.83$  5.69$
  Q  -1.3290  1.75$  8.67$  6.49$
  Q  0.6645  13.39$  16.55$  19.33$
  Q  0.6645  14.15$  17.53$  20.33$
  Q  -1.3290  13.92$  16.8$  20$
  Q  0.6645  11.13$  -0.36$  11.52$
  Q  0.6645  10.75$  0.69$  10.5$
  Q  -1.3290  10.89$  0.4$  11.27$
  Q  0.6645  5.66$  4.19$  13.37$
  Q  0.6645  5.92$  5.07$  14.53$
  Q  -1.3290  6.02$  4.82$  13.77$
  Q  0.6645  8.26$  15.91$  17.18$
  Q  0.6645  8.63$  16.3$  15.82$
  Q  -1.3290  8.46$  16.47$  16.61$
  Q  0.6645  21.71$  9.77$  9.84$
  Q  0.6645  21.44$  10.99$  8.88$
  Q  -1.3290  21.42$  10.17$  9.17$
  Q  0.6645  10.3$  5.7$  3.35$
  Q  0.6645  10.56$  5.65$  4.99$
  Q  -1.3290  10.74$  5.54$  4.13$
  Q  0.6645  9.56$  17.14$  5.81$
  Q  0.6645  10.62$  16.12$  6.42$
  Q  -1.3290  9.85$  16.48$  6.33$
  Q  0.6645  19.93$  9.6$  7.64$
  Q  0.6645  18.62$  8.8$  7.77$
  Q  -1.3290  19.25$  9.17$  7.38$
  Q  0.6645  7.34$  16.74$  4.66$
  Q  0.6645  6.35$  17.58$  4.03$
  Q  -1.3290  7.12$  17.36$  4.15$
  Q  0.6645  1.97$  13.63$  10.24$
  Q  0.6645  2.71$  12.23$  10.61$
  Q  -1.3290  2.61$  13.04$  10.32$
  Q  0.6645  8.56$  2.24$  13.05$
  Q  0.6645  9.3$  0.94$  12.78$
  Q  -1.3290  8.65$  1.4$  13.12$
  Q  0.6645  13.76$  20.83$  9.9$
  Q  0.6645  13.48$  19.51$  9.14$
  Q  -1.3290  13.39$  20.32$  9.33$
  Q  0.6645  12.57$  1.43$  11.99$
  Q  0.6645  13.95$  1.96$  12.76$
  Q  -1.3290  13.24$  1.96$  12.24$
  Q  0.6645  4.52$  14.62$  5.59$
  Q  0.6645  4.66$  13.06$  5.23$
  Q  -1.3290  4.78$  13.92$  5.15$
  Q  0.6645  15.38$  16.55$  3.16$
  Q  0.6645  16.65$  17.29$  3.75$
  Q  -1.3290  16.08$  16.66$  3.61$
  Q  0.6645  16.31$  2.81$  9.64$
  Q  0.6645  15.2$  3.15$  10.6$
  Q  -1.3290  15.97$  2.89$  10.39$
  Q  0.6645  7.01$  7.86$  20.33$
  Q  0.6645  7.69$  7.01$  19.18$
  Q  -1.3290  7.06$  7.43$  19.57$
  Q  0.6645  19.87$  13.73$  11.28$
  Q  0.6645  19.71$  15.17$  11.31$
  Q  -1.3290  19.95$  14.46$  10.96$
  Q  0.6645  12.02$  4.14$  14.52$
  Q  0.6645  12.37$  3.45$  13.14$
  Q  -1.3290  11.92$  3.95$  13.68$
  Q  0.6645  18.31$  11.53$  9.51$
  Q  0.6645  16.88$  11.85$  10.23$
  Q  -1.3290  17.76$  11.68$  10.16$
  Q  0.6645  17.22$  5.25$  18.36$
  Q  0.6645  16.72$  6.67$  18.94$
  Q  -1.3290  17.22$  6.1$  18.5$
  Q  0.6645  11.11$  19.14$  8.53$
  Q  0.6645  10.93$  19.11$  7$
  Q  -1.3290  10.69$  19.29$  7.82$
  Q  0.6645  7.11$  5.06$  7.52$
  Q  0.6645  7.96$  4.09$  8.4$
  Q  -1.3290  7.47$  4.31$  7.71$
  Q  0.6645  14.01$  17$  7.74$
  Q  0.6645  13.22$  17.15$  9.02$
  Q  -1.3290  13.89$  17.25$  8.5$
  Q  0.6645  10.64$  17.7$  9.4$
  Q  0.6645  11.65$  18.19$  10.58$
  Q  -1.3290  11.4$  17.78$  9.86$
  Q  0.6645  14.36$  9.93$  1.91$
  Q  0.6645  13.75$  10.18$  0.47$
  Q  -1.3290  13.78$  9.87$  1.27$
  Q  0.6645  15.29$  4.7$  18.11$
  Q  0.6645  14.6$  5.72$  17.17$
  Q  -1.3290  14.64$  5.17$  17.8$
  Q  0.6645  5.42$  6.12$  6.36$
  Q  0.6645  5.43$  5.02$  5.3$
  Q  -1.3290  5.09$  5.47$  5.9$
  Q  0.6645  3.21$  12.61$  18.05$
  Q  0.6645  2.69$  13.67$  19.11$
  Q  -1.3290  2.87$  12.89$  18.79$
  Q  0.6645  15.79$  5.08$  11.56$
  Q  0.6645  15.33$  6.34$  10.89$
  Q  -1.3290  15.53$  5.87$  11.53$
  Q  0.6645  4.09$  9.17$  1.6$
  Q  0.6645  4.96$  10.34$  2.18$
  Q  -1.3290  4.43$  9.67$  2.21$
  Q  0.6645  18.15$  15.38$  5.23$
  Q  0.6645  17.5$  14.95$  3.87$
  Q  -1.3290  18.06$  14.92$  4.51$
  Q  0.6645  1.34$  6.04$  7.79$
  Q  0.6645  0.03$  6.8$  7.54$
  Q  -1.3290  0.64$  6.48$  8.04$
  Q  0.6645  18.7$  12.92$  18.2$
  Q  0.6645  17.38$  13.86$  18.61$
  Q  -1.3290  17.86$  13.24$  18.21$
  Q  0.6645  9.55$  4.37$  10.61$
  Q  0.6645  10.4$  4.04$  9.39$
  Q  -1.3290  9.68$  4.3$  9.8$
  Q  0.6645  17.59$  11.64$  4.64$
  Q  0.6645  17.71$  13.1$  4.96$
  Q  -1.3290  17.6$  12.31$  5.17$
  Q  0.6645  3.96$  10.83$  4.5$
  Q  0.6645  5.43$  11.03$  4.87$
  Q  -1.3290  4.6$  11.19$  4.9$
  Q  0.6645  8.42$  0.92$  8.21$
  Q  0.6645  7.57$  0.41$  6.99$
  Q  -1.3290  7.75$  0.87$  7.72$
  Q  0.6645  12.15$  15.79$  13$
  Q  0.6645  11$  16.02$  14.11$
  Q  -1.3290  11.81$  15.95$  13.82$
  Q  0.6645  13.43$  15.66$  11.21$
  Q  0.6645  11.99$  15.9$  10.73$
  Q  -1.3290  12.58$  15.63$  11.25$
  Q  0.6645  17.42$  19.49$  9.78$
  Q  0.6645  16.7$  18.83$  11.05$
  Q  -1.3290  17.21$  19.41$  10.6$
  Q  0.6645  6.09$  10.05$  7.4$
  Q  0.6645  4.69$  10.29$  6.66$
  Q  -1.3290  5.23$  10.13$  7.34$
  Q  0.6645  15.7$  4.32$  4.46$
  Q  0.6645  16.91$  5.26$  4.59$
  Q  -1.3290  16.26$  4.79$  4.86$
  Q  0.6645  10.75$  19.1$  12.37$
  Q  0.6645  12.14$  19.85$  12.31$
  Q  -1.3290  11.4$  19.51$  12.01$
  Q  0.6645  9.43$  3.85$  4.69$
  Q  0.6645  8.49$  3.54$  5.98$
  Q  -1.3290  9.12$  3.4$  5.39$
  Q  0.6645  10.84$  -0.01$  8.18$
  Q  0.6645  10.86$  1.41$  8.26$
  Q  -1.3290  10.57$  0.71$  8.48$
  Q  0.6645  17.6$  9.02$  5.53$
  Q  0.6645  17.59$  8.11$  4.35$
  Q  -1.3290  17.61$  8.84$  4.75$
  Q  0.6645  4.01$  9.72$  13.4$
  Q  0.6645  3.6$  8.74$  12.3$
  Q  -1.3290  3.91$  9.47$  12.57$
  Q  0.6645  11.21$  10.53$  1.74$
  Q  0.6645  10.82$  10.98$  3.23$
  Q  -1.3290  10.78$  10.5$  2.5$
  Q  0.6645  8.61$  3.77$  16.29$
  Q  0.6645  8.06$  4.36$  15.06$
  Q  -1.3290  8.48$  4.38$  15.75$
  Q  0.6645  5.17$  17.6$  14.76$
  Q  0.6645  4.49$  17.88$  13.52$
  Q  -1.3290  4.7$  17.39$  14.13$
  Q  0.6645  9.13$  19.64$  13.71$
  Q  0.6645  8.2$  18.89$  12.64$
  Q  -1.3290  8.84$  18.98$  13.23$
  Q  0.6645  13.08$  7.19$  18.89$
  Q  0.6645  12.91$  7.61$  20.43$
  Q  -1.3290  12.84$  7.66$  19.55$
  Q  0.6645  0.9$  12.81$  5.76$
  Q  0.6645  -0.09$  12.41$  4.57$
  Q  -1.3290  0.25$  12.9$  5.18$
  Q  0.6645  5.05$  1.91$  9.01$
  Q  0.6645  5.76$  2.97$  8.11$
  Q  -1.3290  5.1$  2.65$  8.56$
  Q  0.6645  17.48$  6.47$  14.32$
  Q  0.6645  16.46$  6.43$  13.25$
  Q  -1.3290  16.73$  6.63$  14$
  Q  0.6645  6.24$  6.97$  8.51$
  Q  0.6645  7.06$  7.65$  7.25$
  Q  -1.3290  6.64$  7.03$  7.73$
  Q  0.6645  18.12$  20.02$  13.71$
  Q  0.6645  17.82$  18.78$  14.66$
  Q  -1.3290  17.64$  19.46$  14.13$
  Q  0.6645  12.36$  8.45$  3.01$
  Q  0.6645  12.19$  7.03$  3.72$
  Q  -1.3290  12.62$  7.74$  3.43$
  Q  0.6645  14.95$  11.59$  21.51$
  Q  0.6645  14.09$  11.87$  20.27$
  Q  -1.3290  14.29$  11.46$  20.96$
  Q  0.6645  15.85$  16.95$  17.63$
  Q  0.6645  15.3$  15.71$  16.84$
  Q  -1.3290  15.32$  16.52$  17.09$
  Q  0.6645  19.99$  15$  7.01$
  Q  0.6645  20.94$  13.96$  6.31$
  Q  -1.3290  20.43$  14.29$  6.96$
  Q  0.6645  19.11$  12.02$  13.28$
  Q  0.6645  18.76$  12.06$  11.8$
  Q  -1.3290  19.17$  12.34$  12.51$
  Q  0.6645  15.59$  9.98$  8.45$
  Q  0.6645  15.06$  9.24$  7.21$
  Q  -1.3290  15.52$  9.81$  7.63$
  Q  0.6645  18.42$  14.79$  9.33$
  Q  0.6645  17.04$  14.7$  8.87$
  Q  -1.3290  17.73$  15.1$  8.98$
  Q  0.6645  5.13$  16.66$  10.2$
  Q  0.6645  4.26$  17.82$  10.64$
  Q  -1.3290  4.91$  17.27$  10.68$
  Q  0.6645  19.29$  17.27$  12.71$
  Q  0.6645  20.2$  18.42$  12.52$
  Q  -1.3290  19.83$  17.85$  12.98$
  Q  0.6645  9.01$  13.2$  1.25$
  Q  0.6645  8.76$  14.21$  0.13$
  Q  -1.3290  9.2$  13.63$  0.57$
  Q  0.6645  18.24$  9.61$  18.16$
  Q  0.6645  19.31$  10.24$  17.13$
  Q  -1.3290  18.7$  9.7$  17.39$
  Q  0.6645  20.55$  11.32$  18.24$
  Q  0.6645  21.2$  11.87$  16.93$
  Q  -1.3290  20.58$  11.75$  17.52$
  Q  0.6645  2.68$  12.72$  8.23$
  Q  0.6645  2.27$  11.33$  7.74$
  Q  -1.3290  2.48$  12.13$  7.66$
  Q  0.6645  11.95$  17.5$  17.44$
  Q  0.6645  13.19$  16.69$  17.19$
  Q  -1.3290  12.46$  16.86$  17.53$
  Q  0.6645  15.14$  19.76$  5.49$
  Q  0.6645  14.69$  19.23$  6.93$
  Q  -1.3290  15.23$  19.4$  6.25$
  Q  0.6645  7.78$  11.78$  4.18$
  Q  0.6645  8.1$  11.31$  5.53$
  Q  -1.3290  7.65$  11.28$  4.86$
  Q  0.6645  8.43$  15.57$  13.93$
  Q  0.6645  8.99$  17.01$  13.99$
  Q  -1.3290  8.98$  16.18$  14.2$
  Q  0.6645  3.96$  9.04$  8.66$
  Q  0.6645  3.62$  8.09$  9.71$
  Q  -1.3290  3.43$  8.57$  9.09$
  Q  0.6645  14.28$  18.48$  17.4$
  Q  0.6645  14.61$  19.93$  16.85$
  Q  -1.3290  14.12$  19.28$  17.13$
  Q  0.6645  11.62$  5.74$  16.16$
  Q  0.6645  12.83$  4.86$  16.46$
  Q  -1.3290  12.01$  5$  16.32$
  Q  0.6645  13.31$  3.46$  11.07$
  Q  0.6645  13.75$  4.93$  10.73$
  Q  -1.3290  13.65$  4.09$  10.59$
  Q  0.6645  2.69$  10.29$  11.58$
  Q  0.6645  2.06$  9.91$  10.23$
  Q  -1.3290  2.11$  10.33$  10.95$
  Q  0.6645  14.26$  13.2$  18.19$
  Q  0.6645  12.79$  13.44$  18.44$
  Q  -1.3290  13.52$  13.02$  18.52$
  Q  0.6645  3.82$  8.26$  5.24$
  Q  0.6645  4.37$  8.64$  3.83$
  Q  -1.3290  4.38$  8.28$  4.61$
  Q  0.6645  15.48$  8.35$  16.81$
  Q  0.6645  16.88$  9.05$  17.23$
  Q  -1.3290  16.02$  8.96$  17.1$
  Q  0.6645  15.18$  16.34$  10.07$
  Q  0.6645  15.7$  16.33$  11.54$
  Q  -1.3290  15.38$  15.99$  10.79$
  Q  0.6645  1.43$  5.91$  13.61$
  Q  0.6645  2.71$  5.18$  14.1$
  Q  -1.3290  2.19$  5.84$  13.95$
  Q  0.6645  19.07$  5.96$  9.24$
  Q  0.6645  19.44$  4.82$  8.27$
  Q  -1.3290  19.03$  5.16$  8.94$
  Q  0.6645  6.81$  7.99$  16$
  Q  0.6645  8.3$  8.19$  16.17$
  Q  -1.3290  7.54$  8.41$  15.94$
  Q  0.6645  15.49$  5.24$  6.63$
  Q  0.6645  14.68$  6.46$  6.94$
  Q  -1.3290  14.93$  5.69$  7.08$
  Q  0.6645  18.65$  9.05$  20.42$
  Q  0.6645  17.15$  9.14$  20.01$
  Q  -1.3290  17.98$  9.36$  20.03$
  Q  0.6645  3.63$  10.86$  15.74$
  Q  0.6645  2.35$  10.8$  15$
  Q  -1.3290  3.09$  10.5$  15.23$
  Q  0.6645  10.02$  10.57$  17.91$
  Q  0.6645  8.56$  10.73$  18.41$
  Q  -1.3290  9.34$  10.36$  18.35$
  Q  0.6645  15.77$  15.3$  19.93$
  Q  0.6645  16.91$  14.9$  20.95$
  Q  -1.3290  16.6$  15.15$  20.18$
  Q  0.6645  9.4$  6.21$  15.89$
  Q  0.6645  10.36$  7.56$  15.72$
  Q  -1.3290  9.82$  6.99$  16.11$
  Q  0.6645  13.01$  18.81$  15.54$
  Q  0.6645  12.42$  17.7$  14.66$
  Q  -1.3290  12.44$  18.49$  15.01$
  Q  0.6645  18.58$  8.13$  10.23$
  Q  0.6645  19.72$  8.47$  9.28$
  Q  -1.3290  19.23$  7.95$  9.71$
  Q  0.6645  14.85$  7.12$  15.05$
  Q  0.6645  13.44$  7.35$  15.41$
  Q  -1.3290  14.16$  7.03$  15.53$
  Q  0.6645  10.04$  17.48$  3.33$
  Q  0.6645  8.9$  18.29$  3.78$
  Q  -1.3290  9.71$  18.11$  3.73$
  Q  0.6645  14.07$  20.41$  13.66$
  Q  0.6645  14.37$  21.04$  12.26$
  Q  -1.3290  13.9$  20.71$  12.92$
  Q  0.6645  11.34$  7.76$  0.51$
  Q  0.6645  12.88$  8.05$  0.82$
  Q  -1.3290  12.2$  7.61$  0.54$
  Q  0.6645  13.58$  4.43$  5.91$
  Q  0.6645  12.41$  4.12$  5.06$
  Q  -1.3290  12.84$  4.11$  5.76$
  Q  0.6645  3.71$  4.94$  7.08$
  Q  0.6645  3.25$  3.93$  8.18$
  Q  -1.3290  3.14$  4.54$  7.59$
  Q  0.6645  17.72$  15.79$  12.06$
  Q  0.6645  17.7$  16.65$  10.83$
  Q  -1.3290  17.99$  16.4$  11.59$
  Q  0.6645  19.77$  12.64$  7.59$
  Q  0.6645  18.97$  11.44$  7.03$
  Q  -1.3290  19.34$  11.91$  7.63$
  Q  0.6645  2.77$  16.6$  14.31$
  Q  0.6645  1.4$  17.4$  14.89$
  Q  -1.3290  1.91$  16.86$  14.41$
  Q  0.6645  5.11$  7.88$  19.17$
  Q  0.6645  3.76$  7.89$  18.23$
  Q  -1.3290  4.28$  8.04$  18.91$
  Q  0.6645  18.91$  6.83$  17.99$
  Q  0.6645  20$  7.86$  17.38$
  Q  -1.3290  19.7$  7.12$  17.65$
  Q  0.6645  22.37$  10.4$  12.45$
  Q  0.6645  20.97$  11.08$  12.78$
  Q  -1.3290  21.66$  10.61$  12.88$
  Q  0.6645  7.52$  13.43$  16.81$
  Q  0.6645  7.76$  13.66$  18.38$
  Q  -1.3290  7.95$  13.6$  17.53$
  Q  0.6645  9.6$  18.06$  16.98$
  Q  0.6645  10.65$  19.01$  16.37$
  Q  -1.3290  10.2$  18.68$  16.97$
  Q  0.6645  10.68$  15.28$  2.73$
  Q  0.6645  9.55$  15.23$  3.83$
  Q  -1.3290  10.33$  15.39$  3.5$
  Q  0.6645  15.35$  11.17$  4.08$
  Q  0.6645  16.25$  9.96$  4.08$
  Q  -1.3290  15.89$  10.65$  3.73$
  Q  0.6645  20.1$  6.97$  12.86$
  Q  0.6645  20.73$  8.23$  13.32$
  Q  -1.3290  20.32$  7.76$  12.76$
  Q  0.6645  15.47$  6.96$  20.43$
  Q  0.6645  14.89$  8.19$  19.75$
  Q  -1.3290  15.48$  7.74$  20.16$
  Q  0.6645  15.85$  4.16$  7.91$
  Q  0.6645  17.23$  4.02$  8.2$
  Q  -1.3290  16.52$  3.72$  7.96$
  Q  0.6645  18.29$  17.25$  6.12$
  Q  0.6645  18.24$  16.24$  7.39$
  Q  -1.3290  18.49$  16.56$  6.61$
  Q  0.6645  5.96$  7.07$  10.96$
  Q  0.6645  5.02$  6.22$  10.26$
  Q  -1.3290  5.56$  6.81$  10.3$
  Q  0.6645  9.43$  9.31$  20.19$
  Q  0.6645  10.61$  9.89$  20.92$
  Q  -1.3290  10$  9.33$  20.8$
  Q  0.6645  7.43$  11.76$  1.84$
  Q  0.6645  8.84$  11.22$  2.15$
  Q  -1.3290  8.2$  11.77$  2.22$
  Q  0.6645  17.72$  18.07$  18.83$
  Q  0.6645  16.62$  16.93$  19.3$
  Q  -1.3290  16.94$  17.67$  18.92$
  Q  0.6645  6.49$  18.47$  11.27$
  Q  0.6645  7.12$  19.71$  10.57$
  Q  -1.3290  6.84$  19.26$  11.23$
  Q  0.6645  8.66$  4.85$  12.61$
  Q  0.6645  9.92$  4.05$  13.14$
  Q  -1.3290  9.13$  4.18$  12.82$
  Q  0.6645  19.07$  16.48$  16.01$
  Q  0.6645  20.51$  16.92$  16.19$
  Q  -1.3290  19.87$  16.37$  16.21$
  Q  0.6645  3.82$  13.41$  3.44$
  Q  0.6645  3.86$  13.69$  1.82$
  Q  -1.3290  3.6$  13.32$  2.59$
  Q  0.6645  6.09$  6.03$  16.78$
  Q  0.6645  4.8$  6.56$  16.08$
  Q  -1.3290  5.66$  6.47$  16.2$
  Q  0.6645  8.84$  19.88$  8.37$
  Q  0.6645  7.36$  19.4$  8.07$
  Q  -1.3290  8.03$  19.69$  8.54$
  Q  0.6645  11.31$  20.67$  14.37$
  Q  0.6645  10.45$  21.49$  15.22$
  Q  -1.3290  10.59$  20.91$  14.67$
  Q  0.6645  2.14$  7.06$  17$
  Q  0.6645  2.61$  7.98$  15.86$
  Q  -1.3290  2.61$  7.67$  16.65$
  Q  0.6645  12.36$  11.51$  21.36$
  Q  0.6645  11.1$  12.38$  21.65$
  Q  -1.3290  11.56$  11.67$  21.62$
  Q  0.6645  11.94$  5.71$  12.99$
  Q  0.6645  10.97$  6.75$  12.43$
  Q  -1.3290  11.74$  6.45$  12.62$
  Q  0.6645  18.63$  8.7$  12.23$
  Q  0.6645  18.05$  9.76$  11.33$
  Q  -1.3290  18.02$  9.04$  11.76$
  Q  0.6645  15.68$  15.29$  6.49$
  Q  0.6645  15.54$  16.47$  5.58$
  Q  -1.3290  15.26$  15.95$  6.15$
  Q  0.6645  4.22$  3.17$  11.71$
  Q  0.6645  4.83$  1.79$  12.26$
  Q  -1.3290  4.52$  2.6$  12.3$
  Q  0.6645  5.33$  9.78$  18.14$
  Q  0.6645  6.75$  9.38$  17.77$
  Q  -1.3290  6.14$  9.93$  17.95$
  Q  0.6645  6.72$  17.65$  16.44$
  Q  0.6645  6.43$  19.13$  16.36$
  Q  -1.3290  6.27$  18.33$  16.24$
  Q  0.6645  15.45$  13.22$  8.17$
  Q  0.6645  16.44$  12.84$  6.98$
  Q  -1.3290  15.88$  13.33$  7.42$
  Q  0.6645  0.21$  11.4$  14.67$
  Q  0.6645  0.82$  12.61$  15.54$
  Q  -1.3290  0.6$  11.77$  15.35$
  Q  0.6645  6.22$  7.91$  4.76$
  Q  0.6645  7.41$  8.86$  4.93$
  Q  -1.3290  7.04$  8.12$  4.83$
  Q  0.6645  6.51$  6.55$  13.29$
  Q  0.6645  7.06$  7.99$  13.54$
  Q  -1.3290  6.86$  7.32$  13.07$
  Q  0.6645  14.59$  18.53$  12.74$
  Q  0.6645  16.14$  18.6$  12.97$
  Q  -1.3290  15.4$  18.34$  12.62$
  Q  0.6645  12.59$  10.94$  18.31$
  Q  0.6645  12.12$  9.35$  18.18$
  Q  -1.3290  12.33$  10.17$  17.94$
  Q  0.6645  20.24$  8.95$  15.44$
  Q  0.6645  21.54$  9.58$  15.99$
  Q  -1.3290  21.06$  8.98$  15.67$
  Q  0.6645  14.53$  12.87$  5.95$
  Q  0.6645  14.52$  11.45$  6.53$
  Q  -1.3290  14.29$  12.05$  5.98$
  Q  0.6645  3.36$  6.48$  12.14$
  Q  0.6645  2.3$  7.28$  11.31$
  Q  -1.3290  3.06$  7.09$  11.63$
  Q  0.6645  9.74$  6.99$  18.18$
  Q  0.6645  10.17$  7.43$  19.61$
  Q  -1.3290  9.7$  7$  19.03$
  Q  0.6645  -0.06$  14.87$  9.8$
  Q  0.6645  0.98$  15.83$  10.31$
  Q  -1.3290  0.68$  15.24$  9.78$
  Q  0.6645  4.93$  12.94$  16.46$
  Q  0.6645  5.19$  11.69$  17.22$
  Q  -1.3290  4.7$  12.25$  16.86$
  Q  0.6645  8.88$  6.04$  6.98$
  Q  0.6645  10.02$  5.09$  7.04$
  Q  -1.3290  9.67$  5.83$  6.86$
  Q  0.6645  9.63$  8.97$  2.64$
  Q  0.6645  8.58$  8.09$  3.31$
  Q  -1.3290  9.03$  8.38$  2.66$
  Q  0.6645  13.37$  15.87$  6$
  Q  0.6645  12.13$  15.72$  4.99$
  Q  -1.3290  12.53$  15.99$  5.71$
  Q  0.6645  12.54$  18.17$  5.36$
  Q  0.6645  11.62$  19.2$  4.64$
  Q  -1.3290  12.06$  18.89$  5.3$
  Q  0.6645  9.01$  14.66$  19.66$
  Q  0.6645  8.77$  15.98$  20.3$
  Q  -1.3290  8.59$  15.17$  20.16$
  Q  0.6645  14.32$  6.86$  2.43$
  Q  0.6645  15.31$  7.62$  1.41$
  Q  -1.3290  14.99$  6.95$  1.87$
  Q  0.6645  7.12$  6.01$  4.18$
  Q  0.6645  7.24$  4.77$  3.32$
  Q  -1.3290  7.04$  5.21$  4.01$
  Q  0.6645  10.52$  14.2$  17.52$
  Q  0.6645  11.32$  15.4$  18.01$
  Q  -1.3290  10.91$  14.69$  18.11$
  Q  0.6645  6.65$  14.49$  4.71$
  Q  0.6645  8.16$  14.35$  5.27$
  Q  -1.3290  7.52$  14.6$  4.76$
  Q  0.6645  19.79$  5.99$  15.48$
  Q  0.6645  18.72$  5.02$  14.77$
  Q  -1.3290  19.37$  5.59$  14.82$
  Q  0.6645  0.46$  7.51$  9.8$
  Q  0.6645  -0.36$  7.74$  11.03$
  Q  -1.3290  0.31$  7.85$  10.56$
  Q  0.6645  9.31$  3.73$  18.22$
  Q  0.6645  10.52$  3.75$  17.27$
  Q  -1.3290  9.93$  3.4$  17.75$
  Q  0.6645  5.08$  16.25$  6.97$
  Q  0.6645  3.95$  16.66$  6$
  Q  -1.3290  4.76$  16.48$  6.24$
  Q  0.6645  11.96$  3.56$  7.64$
  Q  0.6645  12.38$  3.62$  9.11$
  Q  -1.3290  11.86$  3.48$  8.46$
*
