# opt blyp/aug-cc-pvdz 

afm template

0 1
geometry
C         -0.88000        1.60000       -1.73000
H         -1.71000        2.32000       -1.65000
C         -1.10000        0.63000       -0.52000
O         -2.25000        0.58000       -0.08000
N          0.00000        0.00000        0.00000
H          1.04172       -0.29127       -0.41837
C         -0.07352       -1.16907        0.98742
H         -0.00152       -2.07506        0.36993
H          0.86900       -0.96061        1.44906
H         -0.79572       -1.28927        1.76773
H          0.06390        2.09776       -1.65140
H         -0.86803        1.08891       -2.66997

charge_lattice
0  0  0  0.6645

