 $CONTRL 
  ICHARG=0   MULT=1
  SCFTYP=RHF
  DFTTYP=BLYP
  RUNTYP=GRADIENT
  COORD=UNIQUE ISPHER=1
  NPRINT=-2 ISKPRP=1
  MAXIT=100
 $END

 $DFT
  METHOD=GRID
 $END

 $SCF
  DIRSCF=.TRUE.  FDIFF=.FALSE.
  DIIS=.TRUE.  MAXDII=100  SWDIIS=0.005
  NPREO(1)=999999,999999,0,0
 $END

 $CPHF
  CPHF=AODDI
 $END

 $SYSTEM
  MWORDS=48  MEMDDI=18000 
  PARALL=.T.  TIMLIM=9999999999.0
 $END


 $DATA
  water
  C1
   Ovtzdf    8    0.00000    0.00000    0.00000
   Hvtzdf    1    -0.39000    -0.01000    0.90000
   Hvtzdf    1    -0.11000    0.90000    -0.28000
   Ovtzdf    8    -0.83000    3.11000    1.78000
   Hvtzdf    1    -0.24000    3.87000    1.80000
   Hvtzdf    1    -0.83000    2.80000    0.84000
   Ovtzdf    8    1.03000    3.68000    -2.92000
   Hvtzdf    1    0.51000    4.45000    -2.81000
   Hvtzdf    1    0.48000    2.95000    -3.24000
   Ovtzdf    8    -0.60000    -4.07000    2.93000
   Hvtzdf    1    -1.18000    -3.68000    2.23000
   Hvtzdf    1    -0.08000    -3.28000    3.10000
   Ovtzdf    8    0.79000    -2.67000    0.27000
   Hvtzdf    1    0.52000    -1.79000    0.15000
   Hvtzdf    1    1.31000    -2.74000    1.08000
   Ovtzdf    8    2.85000    0.45000    4.11000
   Hvtzdf    1    1.88000    0.43000    3.89000
   Hvtzdf    1    3.02000    -0.38000    4.58000
   Ovtzdf    8    -3.23000    2.85000    3.03000
   Hvtzdf    1    -2.28000    2.82000    2.79000
   Hvtzdf    1    -3.30000    3.47000    3.74000
   Ovtzdf    8    -4.24000    -0.19000    3.41000
   Hvtzdf    1    -4.15000    -0.47000    2.50000
   Hvtzdf    1    -3.91000    0.75000    3.32000
   Ovtzdf    8    -1.18000    2.36000    -0.95000
   Hvtzdf    1    -1.10000    3.30000    -1.26000
   Hvtzdf    1    -1.99000    2.04000    -1.35000
   Ovtzdf    8    2.67000    3.04000    2.38000
   Hvtzdf    1    2.44000    3.04000    1.44000
   Hvtzdf    1    2.03000    2.68000    3.03000
   Ovtzdf    8    0.08000    0.89000    3.34000
   Hvtzdf    1    -0.33000    0.75000    4.18000
   Hvtzdf    1    -0.23000    1.79000    3.07000
   Ovtzdf    8    -2.73000    -3.13000    -1.36000
   Hvtzdf    1    -2.75000    -2.92000    -0.42000
   Hvtzdf    1    -2.51000    -4.07000    -1.39000
   Ovtzdf    8    2.66000    0.38000    -1.95000
   Hvtzdf    1    2.22000    1.02000    -1.34000
   Hvtzdf    1    3.60000    0.51000    -1.79000
   Ovtzdf    8    -3.70000    1.63000    -1.77000
   Hvtzdf    1    -3.99000    0.72000    -1.79000
   Hvtzdf    1    -4.05000    2.12000    -2.53000
   Ovtzdf    8    2.29000    2.72000    -0.55000
   Hvtzdf    1    1.51000    3.23000    -0.88000
   Hvtzdf    1    3.02000    3.10000    -1.09000
   Ovtzdf    8    -0.58000    -1.13000    -2.42000
   Hvtzdf    1    -1.27000    -1.76000    -2.49000
   Hvtzdf    1    -0.75000    -0.70000    -1.57000
   Ovtzdf    8    0.21000    1.34000    -4.08000
   Hvtzdf    1    -0.53000    1.66000    -4.60000
   Hvtzdf    1    -0.09000    0.59000    -3.59000
 $END
 
 $BASIS
  BasNam(1)= Ovtzdf Hvtzdf Hvtzdf Ovtzdf Hvtzdf
             Hvtzdf Ovtzdf Hvtzdf Hvtzdf Ovtzdf
             Hvtzdf Hvtzdf Ovtzdf Hvtzdf Hvtzdf    
             Ovtzdf Hvtzdf Hvtzdf Ovtzdf Hvtzdf
             Hvtzdf Ovtzdf Hvtzdf Hvtzdf Ovtzdf    
             Hvtzdf Hvtzdf Ovtzdf Hvtzdf Hvtzdf    
             Ovtzdf Hvtzdf Hvtzdf Ovtzdf Hvtzdf    
             Hvtzdf Ovtzdf Hvtzdf Hvtzdf Ovtzdf    
             Hvtzdf Hvtzdf Ovtzdf Hvtzdf Hvtzdf 
             Ovtzdf Hvtzdf Hvtzdf Ovtzdf Hvtzdf    
             Hvtzdf
 $END
 
 $Ovtzdf
  S   8
    1  15330.0000000              0.0005080        
    2   2299.0000000              0.0039290        
    3    522.4000000              0.0202430        
    4    147.3000000              0.0791810        
    5     47.5500000              0.2306870        
    6     16.7600000              0.4331180        
    7      6.2070000              0.3502600        
    8      0.6882000             -0.0081540        
  S   8
    1  15330.0000000             -0.0001150        
    2   2299.0000000             -0.0008950        
    3    522.4000000             -0.0046360        
    4    147.3000000             -0.0187240        
    5     47.5500000             -0.0584630        
    6     16.7600000             -0.1364630        
    7      6.2070000             -0.1757400        
    8      0.6882000              0.6034180        
  S   1
    1      1.7520000              1.0000000        
  S   1
    1      0.2384000              1.0000000        
  S   1
    1      0.0737600              1.0000000        
  P   3
    1     34.4600000              0.0159280        
    2      7.7490000              0.0997400        
    3      2.2800000              0.3104920        
  P   1
    1      0.7156000              1.0000000        
  P   1
    1      0.2140000              1.0000000        
  P   1
    1      0.0597400              1.0000000        
  D   1
    1      2.3140000              1.0000000        
  D   1
    1      0.6450000              1.0000000        
  D   1
    1      0.2140000              1.0000000

 $END
 
 $Hvtzdf
  S   3
    1     33.8700000              0.0060680
    2      5.0950000              0.0453080
    3      1.1590000              0.2028220
  S   1
    1      0.3258000              1.0000000
  S   1
    1      0.1027000              1.0000000
  S   1
    1      0.0252600              1.0000000
  P   1
    1      1.4070000              1.0000000
  P   1
    1      0.3880000              1.0000000
  P   1
    1      0.1020000              1.0000000

 $END
 
 $EFRAG
  COORD=cart POSITION=fixed NOEXREP
  FragName=Frag1
    O1    -7.44000    6.74320    -8.16320
    H2    -8.07000    7.20320    -8.74320
    H3    -7.56000    5.85320    -8.46320
    M4    -7.59000    6.66320    -8.33320
    O5    -9.34320    4.78000    4.84000
    H6    -8.68320    4.78000    4.10000
    H7    -9.98320    4.11000    4.58000
    M8    -9.34320    4.64000    4.64000
    O9    8.05000    -7.20000    -0.44000
    H10    8.37000    -7.80000    0.25000
    H11    8.67000    -7.34000    -1.21000
    M12    8.24000    -7.35000    -0.46000
    O13    4.63000    7.51320    9.99000
    H14    4.94000    7.51320    10.91000
    H15    5.12000    8.16320    9.51000
    M16    4.79000    7.64320    10.08000
    O17    -1.32000    -8.56000    -6.94000
    H18    -1.97000    -9.10000    -6.49000
    H19    -0.48000    -8.63000    -6.44000
    M20    -1.28000    -8.68000    -6.75000
    O21    -2.26000    -5.96000    -7.75320
    H22    -2.07000    -6.86000    -7.42000
    H23    -2.23000    -5.36000    -6.94000
    M24    -2.21000    -6.02000    -7.52000
    O25    -4.72000    0.71000    0.86000
    H26    -4.51000    1.52000    0.38000
    H27    -5.04000    0.07000    0.16000
    M28    -4.74000    0.75000    0.62000
    O29    -2.65000    8.82320    -0.71000
    H30    -2.44000    9.63320    -0.15000
    H31    -2.36000    8.09320    -0.18000
    M32    -2.55000    8.84320    -0.49000
    O33    10.99000    -0.47000    3.97000
    H34    10.48000    -1.19000    3.61000
    H35    11.26000    -0.79000    4.86000
    M36    10.94000    -0.68000    4.08000
    O37    7.09000    1.13000    6.33000
    H38    7.73000    1.10000    5.62000
    H39    7.20000    0.32000    6.81000
    M40    7.24000    0.96000    6.28000
    O41    10.08000    1.15000    9.34000
    H42    11.04000    1.15000    9.45000
    H43    9.70000    0.90000    10.21000
    M44    10.20000    1.10000    9.54000
    O45    -5.73000    -0.42000    -5.07000
    H46    -6.61000    -0.24000    -4.68000
    H47    -5.19000    -0.17000    -4.33000
    M48    -5.80000    -0.33000    -4.84000
    O49    -4.88000    -10.09000    4.86000
    H50    -4.18000    -10.46000    4.27000
    H51    -4.86000    -9.10000    4.87000
    M52    -4.74000    -9.96000    4.74000
    O53    -9.20320    -0.19000    11.11000
    H54    -9.51320    0.67000    11.42000
    H55    -8.34320    0.09000    10.67000
    M56    -9.09320    0.04000    11.08000
    O57    3.59000    -11.41000    -2.46000
    H58    2.73000    -11.02000    -2.62000
    H59    3.82000    -11.92000    -3.23000
    M60    3.46000    -11.43000    -2.65000
    O61    -7.79000    11.48320    6.87000
    H62    -7.78000    11.69320    7.81000
    H63    -7.42000    10.65320    6.72000
    M64    -7.71000    11.35320    7.03000
    O65    -10.41320    -2.47000    1.03000
    H66    -10.91320    -2.84000    1.75000
    H67    -11.05320    -2.22000    0.34000
    M68    -10.64320    -2.49000    1.03000
    O69    -3.41000    2.55000    8.49000
    H70    -3.08000    2.73000    7.57000
    H71    -2.85000    1.97000    9.02000
    M72    -3.24000    2.47000    8.41000
    O73    1.50000    9.34320    -5.16000
    H74    2.05000    9.38320    -4.40000
    H75    1.27000    8.41320    -5.33000
    M76    1.56000    9.17320    -5.04000
    O77    0.58000    12.23320    -0.51000
    H78    0.66000    13.07320    -0.06000
    H79    -0.41000    12.00320    -0.36000
    M80    0.40000    12.35320    -0.39000
    O81    -11.53320    0.41000    2.51000
    H82    -12.25320    -0.13000    2.98000
    H83    -10.67320    -0.03000    2.51000
    M84    -11.50320    0.21000    2.61000
    O85    2.28000    -7.86000    -8.74320
    H86    1.96000    -8.22000    -7.88320
    H87    1.68000    -7.14000    -8.94320
    M88    2.09000    -7.79000    -8.61320
    O89    10.36000    1.09000    -5.28000
    H90    10.08000    1.02000    -6.18000
    H91    11.32000    1.04000    -5.19000
    M92    10.50000    1.07000    -5.44000
    O93    4.55000    -11.84000    -0.01000
    H94    4.13000    -11.89000    -0.86000
    H95    4.66000    -10.88000    0.02000
    M96    4.48000    -11.66000    -0.17000
    O97    -4.53000    -2.10000    -6.88000
    H98    -5.19000    -1.79000    -6.22000
    H99    -4.74000    -1.65000    -7.74000
    M100    -4.70000    -1.95000    -6.92000
    O101    -4.47000    5.03000    9.33000
    H102    -4.74000    5.84000    8.80000
    H103    -3.87000    4.54000    8.75000
    M104    -4.40000    5.09000    9.11000
    O105    -6.18000    -1.68000    2.07000
    H106    -6.61000    -2.37000    2.61000
    H107    -5.29000    -2.01000    1.94000
    M108    -6.09000    -1.89000    2.15000
    O109    7.52000    -6.58000    -4.77000
    H110    8.10000    -7.18000    -4.32000
    H111    6.75000    -7.07000    -5.10000
    M112    7.48000    -6.79000    -4.75000
    O113    -7.40000    5.53000    9.04000
    H114    -8.04000    5.54000    8.31000
    H115    -6.75000    4.83000    8.72000
    M116    -7.40000    5.39000    8.83000
    O117    4.04000    10.88320    -6.99000
    H118    4.86000    11.18320    -7.43000
    H119    3.57000    10.28320    -7.51000
    M120    4.11000    10.82320    -7.19000
    O121    -5.27000    10.06320    8.51000
    H122    -6.10000    10.43320    8.89000
    H123    -5.48000    9.11320    8.56000
    M124    -5.48000    9.94320    8.60000
    O125    4.19000    -8.69000    7.86000
    H126    3.51000    -8.88000    8.56000
    H127    5.03000    -8.82000    8.28000
    M128    4.22000    -8.76000    8.08000
    O129    -3.40000    -1.70000    11.04000
    H130    -3.23000    -1.52000    11.96000
    H131    -4.15000    -2.38000    10.99000
    M132    -3.52000    -1.80000    11.21000
    O133    4.81000    -2.06000    -4.43000
    H134    5.16000    -2.76000    -3.86000
    H135    5.38000    -1.26000    -4.27000
    M136    5.00000    -2.04000    -4.28000
    O137    -0.90000    -2.87000    5.81000
    H138    -0.79000    -2.53000    6.74000
    H139    -0.03000    -2.77000    5.40000
    M140    -0.70000    -2.78000    5.91000
    O141    10.63000    5.59000    0.87000
    H142    10.46000    5.24000    -0.01000
    H143    11.00000    4.86000    1.44000
    M144    10.67000    5.38000    0.81000
    O145    -9.53320    6.17000    -5.80000
    H146    -8.77320    6.31000    -6.42000
    H147    -10.27320    6.62000    -6.11000
    M148    -9.52320    6.29000    -5.99000
    O149    -5.42000    -7.24000    5.45000
    H150    -6.01000    -6.74000    6.04000
    H151    -4.87000    -6.58000    5.00000
    M152    -5.43000    -7.01000    5.48000
    O153    -8.02000    5.21000    -3.58000
    H154    -8.80000    5.17000    -4.19000
    H155    -7.92000    4.35000    -3.14000
    M156    -8.16000    5.03000    -3.61000
    O157    -11.17320    2.67000    4.86000
    H158    -11.92320    2.78000    5.44000
    H159    -11.43320    2.01000    4.20000
    M160    -11.37320    2.56000    4.85000
    O161    -7.60000    3.68000    6.81000
    H162    -8.09000    4.15000    6.15000
    H163    -6.92000    3.13000    6.31000
    M164    -7.56000    3.66000    6.58000
    O165    4.34000    4.77000    4.99000
    H166    4.68000    3.87000    4.96000
    H167    5.12000    5.35000    4.87000
    M168    4.57000    4.71000    4.96000
    O169    5.87000    7.80320    6.37000
    H170    5.03000    7.92320    6.89000
    H171    6.50000    7.24320    6.88000
    M172    5.83000    7.72320    6.57000
    O173    0.29000    7.32320    7.68000
    H174    0.39000    7.39320    8.64000
    H175    0.00000    6.42320    7.45000
    M176    0.25000    7.16320    7.83000
    O177    5.50000    5.18000    0.92000
    H178    6.24000    5.73000    0.67000
    H179    5.90000    4.54000    1.56000
    M180    5.73000    5.17000    1.00000
    O181    -6.03000    6.75320    3.57000
    H182    -6.48000    7.15320    4.38000
    H183    -5.38000    6.26320    4.05000
    M184    -5.99000    6.73320    3.83000
    O185    2.18000    -4.59000    -11.26320
    H186    1.63000    -3.98000    -11.83320
    H187    2.74000    -4.05000    -10.68320
    M188    2.18000    -4.36000    -11.26320
    O189    2.75000    -6.58000    -2.32000
    H190    2.76000    -7.56000    -2.19000
    H191    2.08000    -6.09000    -1.78000
    M192    2.62000    -6.68000    -2.19000
    O193    3.53000    -3.04000    -1.25000
    H194    4.46000    -2.79000    -1.39000
    H195    3.39000    -2.91000    -0.30000
    M196    3.69000    -2.96000    -1.09000
    O197    5.56000    -4.71000    -3.24000
    H198    6.28000    -5.11000    -3.75000
    H199    4.75000    -4.96000    -3.80000
    M200    5.54000    -4.84000    -3.46000
    O201    -1.06000    -8.63000    3.45000
    H202    -0.95000    -8.74000    2.48000
    H203    -0.26000    -8.17000    3.70000
    M204    -0.88000    -8.56000    3.31000
    O205    7.37000    3.44000    -3.52000
    H206    7.18000    3.94000    -4.29000
    H207    7.28000    4.06000    -2.83000
    M208    7.32000    3.67000    -3.54000
    O209    -10.30320    -3.68000    5.51000
    H210    -10.53320    -3.84000    4.57000
    H211    -9.62320    -4.31000    5.55000
    M212    -10.21320    -3.84000    5.33000
    O213    5.83000    10.42320    5.04000
    H214    6.71000    10.78320    4.91000
    H215    5.95000    9.55320    5.39000
    M216    6.03000    10.32320    5.08000
    O217    -5.47000    -5.01000    -7.06000
    H218    -5.05000    -4.69000    -6.27000
    H219    -6.04000    -5.75000    -6.66000
    M220    -5.50000    -5.09000    -6.82000
    O221    0.64000    -6.43000    4.80000
    H222    1.40000    -6.94000    5.15000
    H223    0.92000    -5.55000    4.78000
    M224    0.85000    -6.35000    4.87000
    O225    7.27000    5.82000    7.64000
    H226    8.02000    5.60000    8.30000
    H227    7.50000    5.26000    6.91000
    M228    7.47000    5.67000    7.62000
    O229    1.73000    -12.27000    2.85000
    H230    1.36000    -11.63000    2.31000
    H231    1.92000    -13.01000    2.27000
    M232    1.70000    -12.29000    2.62000
    O233    4.50000    -6.19000    6.29000
    H234    5.47000    -6.27000    6.30000
    H235    4.21000    -7.02000    6.73000
    M236    4.64000    -6.37000    6.38000
    O237    0.04000    1.41000    -8.24320
    H238    0.47000    1.91000    -8.96320
    H239    -0.86000    1.25000    -8.58320
    M240    -0.06000    1.48000    -8.45320
    O241    -2.80000    -9.51000    -4.75000
    H242    -3.37000    -10.27000    -4.61000
    H243    -1.94000    -9.73000    -4.31000
    M244    -2.74000    -9.71000    -4.64000
    O245    6.42000    -8.26000    3.89000
    H246    5.60000    -7.79000    3.67000
    H247    6.20000    -9.06000    3.44000
    M248    6.22000    -8.33000    3.76000
    O249    4.27000    7.58320    -10.11320
    H250    3.77000    6.75320    -10.06320
    H251    3.85000    8.13320    -9.40320
    M252    4.09000    7.52320    -9.95320
    O253    -5.44000    1.53000    -9.96320
    H254    -4.82000    1.83000    -10.68320
    H255    -6.23000    1.13000    -10.33320
    M256    -5.47000    1.51000    -10.18320
    O257    -4.28000    1.35000    -6.86000
    H258    -3.46000    1.54000    -6.41000
    H259    -4.95000    1.04000    -6.27000
    M260    -4.25000    1.33000    -6.65000
    O261    -4.97000    -7.84000    -5.14000
    H262    -4.13000    -8.29000    -4.87000
    H263    -5.05000    -7.08000    -4.53000
    M264    -4.82000    -7.78000    -4.97000
    O265    -2.19000    11.15320    -2.92000
    H266    -1.90000    12.09320    -2.84000
    H267    -2.85000    11.13320    -3.60000
    M268    -2.26000    11.33320    -3.04000
    O269    -2.53000    1.61000    -9.45320
    H270    -3.48000    1.44000    -9.14320
    H271    -2.30000    2.57000    -9.51320
    M272    -2.68000    1.77000    -9.40320
    O273    4.03000    6.50000    -5.78000
    H274    3.59000    7.26320    -6.13000
    H275    4.73000    6.16320    -6.42000
    M276    4.08000    6.58320    -5.98000
    O277    -9.97320    2.62000    8.04000
    H278    -10.49320    3.43000    8.13000
    H279    -9.24320    2.93000    7.56000
    M280    -9.93320    2.84000    7.96000
    O281    7.70000    5.75000    -5.27000
    H282    6.98000    6.05000    -4.62000
    H283    7.22000    5.75000    -6.10000
    M284    7.46000    5.81000    -5.31000
    O285    -3.89000    4.30000    -8.72320
    H286    -2.99000    4.55000    -8.48320
    H287    -4.13000    4.67000    -9.56320
    M288    -3.76000    4.42000    -8.84320
    O289    9.43000    8.26320    0.05000
    H290    9.68000    8.91320    -0.65000
    H291    9.63000    7.37320    -0.28000
    M292    9.52000    8.21320    -0.16000
    O293    -5.94000    -0.12000    6.89000
    H294    -6.48000    -0.89000    6.55000
    H295    -5.01000    -0.43000    6.97000
    M296    -5.86000    -0.34000    6.84000
    O297    1.69000    -9.37000    -2.52000
    H298    1.31000    -9.37000    -1.65000
    H299    0.97000    -9.67000    -3.09000
    M300    1.47000    -9.43000    -2.46000
    O301    -5.33000    12.29320    -1.74000
    H302    -5.41000    12.54320    -0.80000
    H303    -6.27000    12.26320    -2.01000
    M304    -5.53000    12.34320    -1.61000
    O305    -1.92000    -9.08000    0.74000
    H306    -2.39000    -9.89000    0.94000
    H307    -1.31000    -9.28000    0.04000
    M308    -1.89000    -9.28000    0.64000
    O309    3.37000    10.48320    1.25000
    H310    3.94000    9.85320    1.80000
    H311    3.76000    11.32320    1.09000
    M312    3.56000    10.52320    1.33000
    O313    7.87000    8.96320    -6.28000
    H314    7.39000    9.62320    -6.81000
    H315    7.18000    8.55320    -5.65000
    M316    7.64000    9.01320    -6.26000
    O317    0.80000    5.45000    2.06000
    H318    1.03000    5.71000    1.17000
    H319    0.31000    6.21000    2.42000
    M320    0.75000    5.66000    1.95000
    O321    -10.91320    4.15000    -2.60000
    H322    -10.34320    4.60000    -2.04000
    H323    -11.82320    4.45000    -2.48000
    M324    -10.98320    4.30000    -2.47000
    O325    -7.42000    2.69000    -1.49000
    H326    -6.47000    2.75000    -1.67000
    H327    -7.69000    3.53000    -1.07000
    M328    -7.28000    2.87000    -1.44000
    O329    10.03000    -5.72000    2.42000
    H330    10.96000    -5.57000    2.41000
    H331    9.53000    -5.08000    2.94000
    M332    10.12000    -5.56000    2.52000
    O333    -3.64000    2.38000    -12.10320
    H334    -3.79000    3.36000    -12.15320
    H335    -2.89000    2.40000    -11.47320
    M336    -3.52000    2.58000    -11.99320
    O337    2.25000    -9.32000    9.47000
    H338    1.35000    -9.31000    9.10000
    H339    2.07000    -9.31000    10.49000
    M340    2.04000    -9.32000    9.60000
    O341    7.42000    -4.13000    -6.42000
    H342    8.26000    -4.09000    -6.94000
    H343    7.37000    -5.00000    -6.06000
    M344    7.58000    -4.30000    -6.45000
    O345    -10.07320    8.52320    1.60000
    H346    -10.46320    7.77320    2.01000
    H347    -9.59320    9.04320    2.20000
    M348    -10.05320    8.48320    1.80000
    O349    -8.98320    -6.35000    4.96000
    H350    -8.62000    -5.85000    4.20000
    H351    -8.67000    -7.25000    4.99000
    M352    -8.85000    -6.43000    4.82000
    O353    10.95000    3.85000    -3.26000
    H354    10.57000    4.63000    -2.87000
    H355    11.02000    4.06000    -4.18000
    M356    10.89000    4.05000    -3.37000
    O357    -6.80000    -7.94000    3.21000
    H358    -6.38000    -7.71000    4.02000
    H359    -6.13000    -7.62000    2.53000
    M360    -6.58000    -7.83000    3.23000
    O361    10.20000    7.22320    4.92000
    H362    9.32000    6.98320    5.29000
    H363    9.99000    8.03320    4.42000
    M364    9.99000    7.33320    4.89000
    O365    11.20000    4.57000    3.55000
    H366    11.45000    4.61000    4.47000
    H367    11.22000    3.65000    3.30000
    M368    11.25000    4.40000    3.68000
    O369    6.87000    -1.20000    3.64000
    H370    7.29000    -0.48000    4.14000
    H371    6.53000    -1.89000    4.35000
    M372    6.89000    -1.19000    3.88000
    O373    -2.37000    8.44320    8.33000
    H374    -2.89000    8.10320    7.53000
    H375    -1.47000    8.27320    8.14000
    M376    -2.30000    8.34320    8.13000
    O377    -2.78000    -5.97000    -2.18000
    H378    -1.98000    -6.25000    -2.65000
    H379    -3.30000    -5.46000    -2.78000
    M380    -2.73000    -5.93000    -2.39000
    O381    2.54000    1.73000    -6.79000
    H382    2.46000    2.69000    -6.90000
    H383    1.70000    1.42000    -7.18000
    M384    2.36000    1.86000    -6.89000
    O385    -7.15000    -6.40000    7.17000
    H386    -7.27000    -5.90000    7.98000
    H387    -7.92000    -6.32000    6.54000
    M388    -7.33000    -6.29000    7.21000
    O389    -8.14000    -1.45000    -6.38000
    H390    -8.60000    -1.79000    -5.61000
    H391    -8.61000    -0.69000    -6.72000
    M392    -8.32000    -1.37000    -6.29000
    O393    -5.08000    3.26000    -3.33000
    H394    -5.22000    4.12000    -2.85000
    H395    -5.06000    3.49000    -4.27000
    M396    -5.10000    3.48000    -3.42000
    O397    -6.02000    -6.40000    -0.72000
    H398    -6.34000    -6.62000    -1.55000
    H399    -6.30000    -5.48000    -0.62000
    M400    -6.14000    -6.26000    -0.86000
    O401    1.80000    9.33320    3.78000
    H402    1.74000    8.35320    4.00000
    H403    1.25000    9.38320    3.02000
    M404    1.68000    9.14320    3.67000
    O405    -7.31000    -6.81000    -3.35000
    H406    -7.52000    -6.07000    -3.99000
    H407    -8.22000    -7.11000    -3.13000
    M408    -7.54000    -6.72000    -3.43000
    O409    9.83000    5.90000    -1.71000
    H410    8.87000    5.84000    -1.91000
    H411    10.27000    6.48000    -2.40000
    M412    9.73000    6.00000    -1.89000
    O413    -7.06000    7.87320    10.42000
    H414    -7.02000    7.01320    9.95000
    H415    -7.95000    8.24320    10.15000
    M416    -7.23000    7.77320    10.27000
    O417    -4.86000    -9.23000    -2.14000
    H418    -4.21000    -9.89000    -2.27000
    H419    -5.30000    -9.55000    -1.28000
    M420    -4.82000    -9.43000    -1.99000
    O421    -3.65000    -3.78000    5.23000
    H422    -4.08000    -3.59000    6.12000
    H423    -4.22000    -4.11000    4.53000
    M424    -3.85000    -3.81000    5.27000
    O425    -1.22000    -10.87000    5.06000
    H426    -0.38000    -10.80000    5.55000
    H427    -1.20000    -10.15000    4.46000
    M428    -1.05000    -10.71000    5.04000
    O429    -10.23320    2.25000    -4.52000
    H430    -9.43320    1.88000    -4.12000
    H431    -10.46320    2.95000    -3.89000
    M432    -10.11320    2.31000    -4.31000
    O433    3.44000    -2.72000    1.57000
    H434    3.71000    -1.79000    1.53000
    H435    3.04000    -2.59000    2.44000
    M436    3.42000    -2.51000    1.74000
    O437    -1.89000    7.30320    1.31000
    H438    -2.26000    7.30320    2.20000
    H439    -1.74000    6.40320    1.09000
    M440    -1.93000    7.12320    1.44000
    O441    -11.25320    5.92000    2.33000
    H442    -11.09320    5.21000    1.73000
    H443    -11.97320    5.58000    2.90000
    M444    -11.36320    5.71000    2.33000
    O445    5.07000    -2.64000    -7.30000
    H446    5.98000    -2.96000    -7.27000
    H447    4.99000    -2.46000    -6.36000
    M448    5.23000    -2.67000    -7.11000
    O449    3.16000    11.00320    5.53000
    H450    2.62000    10.64320    4.77000
    H451    4.06000    11.00320    5.12000
    M452    3.23000    10.93320    5.30000
    O453    10.30000    4.56000    -5.94000
    H454    9.70000    5.28000    -5.80000
    H455    10.69000    4.66000    -6.83000
    M456    10.26000    4.72000    -6.09000
    O457    -5.56000    2.20000    10.62000
    H458    -4.95000    2.44000    9.89000
    H459    -4.97000    2.36000    11.34000
    M460    -5.32000    2.28000    10.62000
    O461    -7.78000    3.88000    -9.13320
    H462    -8.20000    3.67000    -8.25320
    H463    -8.43000    3.45000    -9.72320
    M464    -8.00000    3.75000    -9.07320
    O465    8.43000    2.95000    8.18000
    H466    9.03000    2.24000    8.38000
    H467    8.01000    2.60000    7.38000
    M468    8.46000    2.74000    8.06000
    O469    -4.90000    -4.92000    3.09000
    H470    -5.87000    -4.92000    3.13000
    H471    -4.67000    -4.44000    2.29000
    M472    -5.05000    -4.82000    2.93000
    O473    -9.07320    9.86320    4.08000
    H474    -8.54320    9.40320    4.71000
    H475    -9.97320    9.44320    4.19000
    M476    -9.14320    9.69320    4.23000
    O477    4.91000    0.29000    -7.36000
    H478    4.09000    0.80000    -7.22000
    H479    4.76000    -0.62000    -7.56000
    M480    4.71000    0.21000    -7.37000
    O481    -6.90000    -0.09000    9.43000
    H482    -6.41000    0.66000    9.82000
    H483    -6.63000    -0.08000    8.49000
    M484    -6.75000    0.06000    9.32000
    O485    -10.11320    -6.76000    0.46000
    H486    -9.78320    -7.37000    -0.21000
    H487    -10.25320    -7.27000    1.28000
    M488    -10.07320    -6.99000    0.49000
    O489    5.04000    -7.00000    -5.87000
    H490    4.86000    -6.26000    -6.48000
    H491    4.17000    -7.34000    -5.64000
    M492    4.83000    -6.92000    -5.94000
    O493    -10.43320    0.13000    -7.07000
    H494    -10.72320    0.45000    -6.21000
    H495    -10.17320    0.97000    -7.53000
    M496    -10.43320    0.36000    -6.99000
    O497    7.72000    -3.83000    0.50000
    H498    7.21000    -3.28000    -0.14000
    H499    7.01000    -4.23000    1.03000
    M500    7.48000    -3.80000    0.48000
    O501    2.51000    -0.95000    -8.61320
    H502    1.76000    -1.34000    -8.16320
    H503    2.18000    -0.13000    -8.86320
    M504    2.29000    -0.86000    -8.57320
    O505    0.66000    -3.83000    -4.09000
    H506    1.45000    -4.23000    -4.41000
    H507    0.08000    -4.56000    -3.78000
    M508    0.70000    -4.06000    -4.09000
    O509    5.11000    -0.27000    1.71000
    H510    5.75000    -0.09000    1.03000
    H511    5.60000    -0.81000    2.34000
    M512    5.33000    -0.35000    1.70000
    O513    5.89000    8.28320    -4.28000
    H514    5.24000    7.75320    -4.75000
    H515    5.65000    8.18320    -3.35000
    M516    5.71000    8.16320    -4.19000
    O517    2.90000    -2.13000    9.19000
    H518    3.10000    -1.51000    8.46000
    H519    3.23000    -1.61000    9.93000
    M520    3.01000    -1.90000    9.19000
    O521    6.48000    11.84320    1.46000
    H522    5.97000    12.32320    0.74000
    H523    6.37000    10.93320    1.11000
    M524    6.35000    11.75320    1.25000
    O525    0.66000    -2.85000    11.80000
    H526    0.87000    -1.99000    12.06000
    H527    -0.22000    -2.96000    12.10000
    M528    0.53000    -2.70000    11.91000
    O529    -2.17000    -2.50000    -9.22320
    H530    -2.00000    -3.28000    -9.74320
    H531    -1.79000    -2.60000    -8.33320
    M532    -2.06000    -2.67000    -9.14320
    O533    8.71000    9.44320    4.03000
    H534    8.44000    9.57320    4.93000
    H535    9.15000    10.26320    3.77000
    M536    8.74000    9.63320    4.16000
    O537    0.69000    -2.30000    -6.73000
    H538    1.26000    -3.07000    -6.66000
    H539    0.01000    -2.48000    -6.10000
    M540    0.67000    -2.49000    -6.59000
    O541    3.76000    -10.43000    3.24000
    H542    3.13000    -11.15000    3.27000
    H543    3.87000    -9.96000    2.36000
    M544    3.65000    -10.48000    3.07000
    O545    -8.70000    -10.55000    0.20000
    H546    -8.40320    -10.49000    -0.77000
    H547    -9.44320    -11.18000    0.33000
    M548    -8.79000    -10.66000    0.03000
    O549    -11.53320    -2.61000    7.94000
    H550    -12.32320    -2.55000    8.48000
    H551    -11.83320    -3.28000    7.34000
    M552    -11.75320    -2.73000    7.93000
    O553    -4.77000    -8.41000    -8.04320
    H554    -5.70000    -8.47000    -8.27320
    H555    -4.81000    -8.00000    -7.16320
    M556    -4.96000    -8.34000    -7.91320
    O557    5.20000    -9.23000    -3.32000
    H558    4.51000    -9.86000    -3.07000
    H559    5.11000    -9.22000    -4.25000
    M560    5.04000    -9.35000    -3.45000