! NoMOPrint PrintBasis #MINIPRINT SMALLPRINT LARGEPRINT
! ALLPOP XYZFILE
#! BP86 3-21G   TightSCF
! ENGRAD
! B3LYP NormalPNO PModel #DecontractAux
#! VerySlowConv 
 %maxcore 5000
 %scf  maxiter   500  end 

%pal
    nprocs 32
end

%basis
    NewGTO O    # New basis for oxygen
        "aug-cc-pVTZ"
    end
    NewGTO C    # New basis for carbon
        "aug-cc-pVTZ"
    end
    NewGTO H    # New basis for hydrogen
        "cc-pVTZ"
    end
end

* xyz 0   1
  C  11.25  10.16  12.46  #1
  H  12.24  9.83  12.83  #2
  H  10.98  9.42  11.67  #3
  C  11.21  11.49  11.81  #4
  H  10.35  12.12  12.04  #5
  H  11.99  12.11  12.28  #6
  C  11.5  11.48  10.34  #7
  H  12.41  10.88  10.2  #8
  H  11.78  12.47  9.87  #9
  C  10.2  11.06  9.63  #10
  H  9.37  11.84  9.63  #11
  H  9.8  10.23  10.14  #12
  O  10.37  10.66  8.28  #13
  H  10.75  9.82  8.19  #14
  O  10.36  10.12  13.59  #15
  H  9.83  9.31  13.46  #16
  O  12.29  13.6  7.3  #17
  H  11.76  12.96  6.8  #18
  H  11.7  14.02  7.96  #19
  O  13.93  7.84  10.28  #20
  H  14.27  8.77  10.39  #21
  H  12.98  7.91  10.04  #22
  O  13.97  11.2  7.79  #23
  H  13.84  10.36  7.33  #24
  H  13.21  11.74  7.46  #25
  O  6.83  9.9  10.12  #26
  H  5.95  9.48  10.25  #27
  H  7.51  9.3  10.46  #28
  O  11.71  11.6  15.7  #29
  H  11.23  10.99  15.2  #30
  H  12.43  11.1  16.13  #31
  O  6.45  11.7  12.87  #32
  H  5.51  11.38  13.12  #33
  H  6.67  11.16  12.13  #34
  O  7.7  8.88  7.78  #35
  H  7.35  9.5  8.39  #36
  H  7.31  9.04  6.89  #37
  O  9.13  12.41  16.96  #38
  H  8.93  13.38  17.09  #39
  H  9.91  12.33  16.51  #40
  O  11.21  10.93  18.74  #41
  H  10.85  11.33  17.92  #42
  H  11.66  11.54  19.29  #43
  O  15.25  10.31  9.97  #44
  H  14.67  10.55  9.19  #45
  H  14.93  10.88  10.66  #46
  O  10.56  11.72  5.77  #47
  H  10.08  11.16  6.4  #48
  H  9.87  12.22  5.33  #49
  O  14.28  15.41  6  #50
  H  14.8  14.58  6.08  #51
  H  13.51  15.18  6.46  #52
  O  10.91  7.93  9.46  #53
  H  10.8  7.21  8.79  #54
  H  10.16  8.02  10.03  #55
  O  15.73  6.03  8.99  #56
  H  15.46  6.72  9.53  #57
  H  15.59  5.12  9.41  #58
  O  13.98  12.23  14.19  #59
  H  13.19  12.42  14.71  #60
  H  14.18  11.3  14.39  #61
  O  10.96  15.06  8.92  #62
  H  10.7  14.86  9.85  #63
  H  10.58  15.93  8.92  #64
  O  13.55  10.03  17.39  #65
  H  12.7  10.1  17.83  #66
  H  14.1  10.83  17.66  #67
  O  13.54  14.99  13.16  #68
  H  13.1  15.03  12.31  #69
  H  13.82  14.07  13.33  #70
  O  6.2  12.4  8.57  #71
  H  6.08  13.29  9  #72
  H  6.53  11.91  9.35  #73
  O  4.14  8.54  10.13  #74
  H  3.49  9.06  9.67  #75
  H  4.4  7.85  9.5  #76
  O  8.43  7.7  10.98  #77
  H  8.49  7.17  11.79  #78
  H  7.9  7.08  10.48  #79
  O  13.49  7.19  14.6  #80
  H  13.63  6.72  15.45  #81
  H  12.68  7.65  14.76  #82
  O  14.03  8.37  6.82  #83
  H  13.83  7.67  7.37  #84
  H  13.6  8.12  6  #85
  O  15.59  12.89  6.31  #86
  H  16.25  12.37  5.82  #87
  H  15.18  12.25  6.86  #88
  O  9.61  7.31  13.61  #89
  H  9.21  7.55  14.46  #90
  H  9.88  6.38  13.71  #91
  O  13.96  5.91  12.21  #92
  H  14.08  6.52  11.47  #93
  H  13.63  6.37  13  #94
  Q  0.6645  14.12$  1.64$  7.5$
  Q  0.6645  13.34$  0.32$  7.49$
  Q  -1.3290  13.46$  1.15$  7.34$
  Q  0.6645  2.48$  7.06$  9.77$
  Q  0.6645  1.39$  8.02$  10.18$
  Q  -1.3290  1.71$  7.28$  9.98$
  Q  0.6645  13.53$  18.75$  16.64$
  Q  0.6645  13.08$  20.1$  16.92$
  Q  -1.3290  13.3$  19.49$  16.42$
  Q  0.6645  4.56$  13.78$  15.94$
  Q  0.6645  4.11$  13.65$  14.31$
  Q  -1.3290  4.04$  13.67$  15.21$
  Q  0.6645  18.85$  6.22$  13.48$
  Q  0.6645  17.89$  6.52$  14.58$
  Q  -1.3290  18.16$  6.09$  13.92$
  Q  0.6645  6.69$  5.04$  12.28$
  Q  0.6645  7.85$  4.97$  13.27$
  Q  -1.3290  7.55$  4.98$  12.49$
  Q  0.6645  5.73$  11.42$  21.76$
  Q  0.6645  6.52$  12.08$  20.64$
  Q  -1.3290  5.84$  11.91$  21.08$
  Q  0.6645  2.52$  14.95$  8.52$
  Q  0.6645  3.15$  14.01$  7.57$
  Q  -1.3290  2.61$  14.21$  8.2$
  Q  0.6645  7.64$  3.96$  5.19$
  Q  0.6645  6.41$  4.4$  5.97$
  Q  -1.3290  7.01$  4.49$  5.43$
  Q  0.6645  9.66$  2.61$  9.88$
  Q  0.6645  9.19$  1.76$  10.98$
  Q  -1.3290  9.61$  1.88$  10.29$
  Q  0.6645  7.81$  10.8$  16.89$
  Q  0.6645  7.77$  9.59$  17.82$
  Q  -1.3290  7.52$  10.08$  17.19$
  Q  0.6645  8.34$  12.5$  3.91$
  Q  0.6645  9.06$  13.9$  4.09$
  Q  -1.3290  8.63$  13.2$  4.31$
  Q  0.6645  18.1$  18.12$  14.38$
  Q  0.6645  17.26$  17.3$  13.41$
  Q  -1.3290  17.98$  17.61$  13.73$
  Q  0.6645  8.24$  1.88$  12.99$
  Q  0.6645  7.82$  3.24$  12.18$
  Q  -1.3290  7.95$  2.35$  12.31$
  Q  0.6645  16.29$  8.82$  7.02$
  Q  0.6645  17.71$  8.54$  7.01$
  Q  -1.3290  17.05$  9.04$  6.99$
  Q  0.6645  12.27$  14.36$  17.73$
  Q  0.6645  12.51$  15.05$  16.38$
  Q  -1.3290  12.73$  14.61$  17.07$
  Q  0.6645  3.74$  14.04$  5.2$
  Q  0.6645  4.62$  13.3$  6.26$
  Q  -1.3290  4.16$  13.93$  5.94$
  Q  0.6645  13.57$  17.6$  8.58$
  Q  0.6645  12.17$  18.11$  7.64$
  Q  -1.3290  12.97$  18.17$  8.1$
  Q  0.6645  7.66$  7.16$  15.9$
  Q  0.6645  7.88$  8.61$  16.21$
  Q  -1.3290  8.1$  7.83$  15.92$
  Q  0.6645  2.62$  9.55$  7.81$
  Q  0.6645  1.31$  9.93$  8.34$
  Q  -1.3290  2.12$  9.86$  8.42$
  Q  0.6645  4.07$  3.98$  11.61$
  Q  0.6645  2.98$  3.25$  12.44$
  Q  -1.3290  3.47$  3.39$  11.74$
  Q  0.6645  15.32$  4.79$  2.33$
  Q  0.6645  15.38$  5.82$  1.2$
  Q  -1.3290  15.71$  5.2$  1.7$
  Q  0.6645  10.98$  4.18$  13.36$
  Q  0.6645  11.26$  4.26$  14.8$
  Q  -1.3290  10.83$  4.42$  14.13$
  Q  0.6645  12.72$  6.09$  19.78$
  Q  0.6645  13.48$  5.94$  21.11$
  Q  -1.3290  12.82$  5.93$  20.61$
  Q  0.6645  11.63$  3.65$  11.06$
  Q  0.6645  12.66$  4.35$  12.01$
  Q  -1.3290  12.04$  3.82$  11.8$
  Q  0.6645  4.56$  6.26$  11.9$
  Q  0.6645  5.69$  5.97$  10.78$
  Q  -1.3290  5.18$  5.78$  11.48$
  Q  0.6645  13.55$  20.06$  8.85$
  Q  0.6645  13.32$  21.43$  9.59$
  Q  -1.3290  13.72$  20.85$  9.11$
  Q  0.6645  11.96$  19.09$  15.06$
  Q  0.6645  11.72$  18.73$  13.53$
  Q  -1.3290  11.52$  18.77$  14.35$
  Q  0.6645  9.1$  7.68$  3.03$
  Q  0.6645  8.08$  7.09$  2.14$
  Q  -1.3290  8.36$  7.68$  2.66$
  Q  0.6645  7.32$  16.53$  2.57$
  Q  0.6645  5.88$  16.39$  1.98$
  Q  -1.3290  6.69$  16.13$  2.15$
  Q  0.6645  3.09$  3.66$  14.93$
  Q  0.6645  1.8$  3.03$  14.42$
  Q  -1.3290  2.62$  3.16$  14.41$
  Q  0.6645  19.13$  10.62$  9.77$
  Q  0.6645  20.51$  11.04$  9.2$
  Q  -1.3290  19.93$  10.88$  9.8$
  Q  0.6645  12.75$  10.16$  0.99$
  Q  0.6645  14.2$  10.1$  1.36$
  Q  -1.3290  13.52$  10.49$  1.07$
  Q  0.6645  11.02$  19.34$  11.43$
  Q  0.6645  11.74$  18.2$  10.66$
  Q  -1.3290  11.48$  18.66$  11.33$
  Q  0.6645  9.95$  6.88$  19.67$
  Q  0.6645  8.47$  6.45$  19.79$
  Q  -1.3290  9.32$  6.35$  19.86$
  Q  0.6645  6.54$  12.09$  6.82$
  Q  0.6645  6.92$  12.57$  5.53$
  Q  -1.3290  6.42$  12.15$  6.02$
  Q  0.6645  14.97$  17.93$  13.72$
  Q  0.6645  14.74$  16.5$  13.68$
  Q  -1.3290  15.06$  17.16$  14$
  Q  0.6645  9.65$  10.84$  21.06$
  Q  0.6645  9.97$  9.48$  21.75$
  Q  -1.3290  9.53$  10.04$  21.29$
  Q  0.6645  18.01$  7.3$  10.01$
  Q  0.6645  17.54$  5.88$  9.8$
  Q  -1.3290  18.14$  6.48$  9.87$
  Q  0.6645  14.75$  8.61$  3.11$
  Q  0.6645  15.75$  9.8$  3.02$
  Q  -1.3290  15.31$  9.14$  2.72$
  Q  0.6645  6.44$  13.51$  17.59$
  Q  0.6645  5.19$  12.57$  17.62$
  Q  -1.3290  5.73$  13.12$  17.28$
  Q  0.6645  11.47$  16.93$  15.03$
  Q  0.6645  11.83$  15.68$  14.23$
  Q  -1.3290  11.49$  16.09$  14.86$
  Q  0.6645  17.17$  8.32$  15.95$
  Q  0.6645  17.98$  7.26$  16.65$
  Q  -1.3290  17.4$  7.54$  16.12$
  Q  0.6645  9.39$  3.39$  14.92$
  Q  0.6645  8.85$  2.49$  15.94$
  Q  -1.3290  8.79$  3.04$  15.34$
  Q  0.6645  4.32$  15.53$  12.22$
  Q  0.6645  3.92$  17.21$  12.14$
  Q  -1.3290  4.25$  16.42$  11.88$
  Q  0.6645  4.81$  8.33$  6.11$
  Q  0.6645  4.26$  6.99$  5.34$
  Q  -1.3290  4.38$  7.55$  6.01$
  Q  0.6645  6.01$  5.08$  15.68$
  Q  0.6645  7.48$  4.5$  15.75$
  Q  -1.3290  6.86$  5.09$  15.81$
  Q  0.6645  13.97$  10.01$  20.89$
  Q  0.6645  14.39$  9.69$  19.31$
  Q  -1.3290  14.14$  9.55$  20.15$
  Q  0.6645  16.64$  10.51$  15.96$
  Q  0.6645  17.79$  11.33$  16.45$
  Q  -1.3290  17.39$  10.62$  16.32$
  Q  0.6645  18.88$  7.84$  2.54$
  Q  0.6645  17.6$  8.28$  3.24$
  Q  -1.3290  18.43$  8.14$  3.18$
  Q  0.6645  15.5$  5.46$  12.05$
  Q  0.6645  16.89$  5.33$  12.72$
  Q  -1.3290  16.3$  5.19$  12.1$
  Q  0.6645  15.48$  17.62$  7.07$
  Q  0.6645  16.42$  16.47$  6.76$
  Q  -1.3290  16.21$  17.23$  7.08$
  Q  0.6645  5.09$  3.64$  8.5$
  Q  0.6645  6.41$  3.04$  8.09$
  Q  -1.3290  5.8$  3.62$  8.05$
  Q  0.6645  21.32$  6.53$  13.1$
  Q  0.6645  20.66$  7.67$  12.37$
  Q  -1.3290  20.81$  7.16$  13.05$
  Q  0.6645  18.96$  6.73$  8.04$
  Q  0.6645  19.36$  6.27$  6.66$
  Q  -1.3290  19.28$  6.85$  7.27$
  Q  0.6645  10.21$  5.12$  9.49$
  Q  0.6645  9.16$  4.9$  10.57$
  Q  -1.3290  9.62$  4.68$  9.93$
  Q  0.6645  3.2$  5.26$  8.45$
  Q  0.6645  3.84$  6.24$  7.56$
  Q  -1.3290  3.68$  5.93$  8.28$
  Q  0.6645  1.07$  8.39$  5.96$
  Q  0.6645  2.31$  8.26$  5.21$
  Q  -1.3290  1.72$  8.71$  5.57$
  Q  0.6645  2.86$  15.14$  15.92$
  Q  0.6645  1.6$  15.97$  16.13$
  Q  -1.3290  2.41$  15.72$  16.29$
  Q  0.6645  17.89$  15.12$  18.21$
  Q  0.6645  16.93$  15.48$  19.29$
  Q  -1.3290  17.69$  15.22$  18.99$
  Q  0.6645  9.9$  16.12$  19.98$
  Q  0.6645  8.36$  16.46$  20.25$
  Q  -1.3290  9.09$  16.43$  19.82$
  Q  0.6645  17.22$  16.22$  16.6$
  Q  0.6645  18.8$  15.95$  16.48$
  Q  -1.3290  17.94$  15.78$  16.47$
  Q  0.6645  19.96$  9.52$  14.29$
  Q  0.6645  20$  10.88$  14.65$
  Q  -1.3290  19.8$  10.28$  14.13$
  Q  0.6645  6.49$  6.56$  21.87$
  Q  0.6645  5.65$  6.43$  20.73$
  Q  -1.3290  5.9$  6.8$  21.4$
  Q  0.6645  9.91$  6.59$  0.27$
  Q  0.6645  11.34$  6.18$  0.32$
  Q  -1.3290  10.61$  6.38$  0.65$
  Q  0.6645  6.15$  4.88$  3.89$
  Q  0.6645  4.96$  5.65$  3.2$
  Q  -1.3290  5.54$  5.04$  3.28$
  Q  0.6645  11.2$  8.17$  1.11$
  Q  0.6645  11.13$  9.54$  1.66$
  Q  -1.3290  11.3$  8.99$  1.09$
  Q  0.6645  6.66$  7.52$  8.49$
  Q  0.6645  5.98$  6.08$  8.47$
  Q  -1.3290  6.32$  6.83$  8.84$
  Q  0.6645  17.25$  2.04$  10.69$
  Q  0.6645  16.61$  3.44$  11.11$
  Q  -1.3290  16.63$  2.63$  10.81$
  Q  0.6645  15.34$  5.51$  4.69$
  Q  0.6645  14.27$  4.41$  4.42$
  Q  -1.3290  14.66$  5.18$  4.3$
  Q  0.6645  8.68$  13.08$  20.44$
  Q  0.6645  8.83$  12.05$  19.27$
  Q  -1.3290  8.43$  12.43$  19.91$
  Q  0.6645  9.15$  20.93$  8.84$
  Q  0.6645  8.44$  20.48$  10.12$
  Q  -1.3290  9.03$  20.46$  9.53$
  Q  0.6645  16.25$  7.07$  20.93$
  Q  0.6645  14.87$  7.65$  20.94$
  Q  -1.3290  15.44$  7.09$  21.14$
  Q  0.6645  2.94$  7.56$  14.26$
  Q  0.6645  3.74$  8.01$  15.6$
  Q  -1.3290  3.07$  7.71$  15.11$
  Q  0.6645  4.63$  8.3$  17.74$
  Q  0.6645  5.63$  9.34$  17.18$
  Q  -1.3290  4.88$  8.92$  17.23$
  Q  0.6645  15.95$  9.27$  14.03$
  Q  0.6645  14.89$  8.76$  14.96$
  Q  -1.3290  15.41$  9.35$  14.64$
  Q  0.6645  9.71$  15.84$  14.33$
  Q  0.6645  8.49$  15.07$  14.01$
  Q  -1.3290  9.06$  15.66$  13.82$
  Q  0.6645  9.62$  18.58$  17.12$
  Q  0.6645  9.71$  17.65$  18.24$
  Q  -1.3290  9.99$  18.28$  17.8$
  Q  0.6645  14.88$  17.16$  16.1$
  Q  0.6645  14.16$  16.22$  17.02$
  Q  -1.3290  14.53$  16.94$  16.81$
  Q  0.6645  7.49$  15.65$  17.17$
  Q  0.6645  8.21$  15.22$  18.42$
  Q  -1.3290  7.81$  15.08$  17.7$
  Q  0.6645  5.13$  9.75$  1.19$
  Q  0.6645  4.84$  10.72$  2.24$
  Q  -1.3290  5.3$  10.43$  1.65$
  Q  0.6645  8.35$  9.64$  2.46$
  Q  0.6645  7.31$  10.68$  1.87$
  Q  -1.3290  8$  10.41$  2.36$
  Q  0.6645  16.99$  9.66$  18.03$
  Q  0.6645  16.82$  9.54$  19.6$
  Q  -1.3290  16.6$  9.51$  18.78$
  Q  0.6645  14.09$  17.36$  5$
  Q  0.6645  13.3$  18.67$  4.76$
  Q  -1.3290  13.44$  17.84$  4.72$
  Q  0.6645  17.14$  9.42$  9.28$
  Q  0.6645  17.43$  9.44$  10.75$
  Q  -1.3290  17.6$  9.27$  9.95$
  Q  0.6645  19.01$  17.07$  9.45$
  Q  0.6645  17.74$  17.35$  8.47$
  Q  -1.3290  18.47$  17.52$  8.93$
  Q  0.6645  12.31$  8.02$  4.08$
  Q  0.6645  13.5$  6.98$  4.15$
  Q  -1.3290  13.1$  7.74$  4.22$
  Q  0.6645  14.64$  12.92$  17.46$
  Q  0.6645  15.92$  12.23$  17.97$
  Q  -1.3290  15.07$  12.39$  17.93$
  Q  0.6645  3.04$  7.89$  19.07$
  Q  0.6645  3.55$  6.41$  19.05$
  Q  -1.3290  3.62$  7.26$  19.12$
  Q  0.6645  11.55$  17.59$  5.43$
  Q  0.6645  9.99$  17.12$  5.92$
  Q  -1.3290  10.75$  17.58$  5.84$
  Q  0.6645  19.35$  12.67$  5.75$
  Q  0.6645  19.51$  12.88$  4.22$
  Q  -1.3290  19.26$  12.48$  4.94$
  Q  0.6645  16.1$  4.12$  16.03$
  Q  0.6645  16.13$  4.48$  17.53$
  Q  -1.3290  15.79$  4.34$  16.8$
  Q  0.6645  11.31$  16.69$  11.74$
  Q  0.6645  10.5$  15.72$  12.51$
  Q  -1.3290  11.09$  15.9$  11.95$
  Q  0.6645  5.97$  17.69$  16.35$
  Q  0.6645  6.94$  17.64$  17.52$
  Q  -1.3290  6.69$  17.47$  16.74$
  Q  0.6645  18.33$  14.76$  5.92$
  Q  0.6645  17.29$  14.79$  4.78$
  Q  -1.3290  17.62$  15$  5.56$
  Q  0.6645  13.6$  13.05$  20.24$
  Q  0.6645  12.29$  12.71$  21.1$
  Q  -1.3290  12.78$  12.88$  20.38$
  Q  0.6645  8.91$  1.54$  4.85$
  Q  0.6645  9.14$  2.04$  6.29$
  Q  -1.3290  8.77$  2.04$  5.53$
  Q  0.6645  1.12$  13.79$  7.26$
  Q  0.6645  -0.36$  13.7$  6.72$
  Q  -1.3290  0.47$  13.53$  6.75$
  Q  0.6645  6.32$  10.27$  5.04$
  Q  0.6645  6.64$  8.97$  4.35$
  Q  -1.3290  6.46$  9.44$  5.01$
  Q  0.6645  21.25$  9.77$  11$
  Q  0.6645  22.23$  9.29$  12.21$
  Q  -1.3290  21.76$  9.24$  11.44$
  Q  0.6645  6.75$  5.06$  1.77$
  Q  0.6645  7.89$  4.48$  1.04$
  Q  -1.3290  7.4$  5.1$  1.27$
  Q  0.6645  2.49$  14.3$  3.22$
  Q  0.6645  3.31$  13.16$  3.17$
  Q  -1.3290  3.18$  13.94$  3.37$
  Q  0.6645  16.87$  5.85$  6.13$
  Q  0.6645  15.97$  5.76$  7.38$
  Q  -1.3290  16.16$  5.91$  6.56$
  Q  0.6645  3.6$  13.14$  11.9$
  Q  0.6645  5.01$  13.39$  12.05$
  Q  -1.3290  4.23$  13.55$  12.25$
  Q  0.6645  12.97$  15.7$  9.65$
  Q  0.6645  14.44$  15.56$  10.01$
  Q  -1.3290  13.73$  15.97$  9.86$
  Q  0.6645  11.03$  20.8$  4.62$
  Q  0.6645  10.56$  19.51$  5.42$
  Q  -1.3290  10.51$  20.31$  5.09$
  Q  0.6645  15.69$  7.45$  16.74$
  Q  0.6645  14.64$  8.41$  17.39$
  Q  -1.3290  14.92$  7.68$  17.03$
  Q  0.6645  4.14$  10.46$  18.12$
  Q  0.6645  4.13$  11.32$  19.44$
  Q  -1.3290  3.97$  11.14$  18.58$
  Q  0.6645  9.74$  18.72$  15.1$
  Q  0.6645  8.35$  17.97$  15.58$
  Q  -1.3290  8.91$  18.64$  15.44$
  Q  0.6645  11.71$  12.09$  1.52$
  Q  0.6645  11.28$  13.47$  1.37$
  Q  -1.3290  11.38$  12.72$  1.1$
  Q  0.6645  10.41$  8.11$  16.26$
  Q  0.6645  10.99$  8.3$  17.64$
  Q  -1.3290  11.03$  8.09$  16.81$
  Q  0.6645  11.56$  2$  7.47$
  Q  0.6645  10.9$  3.27$  7.18$
  Q  -1.3290  10.9$  2.52$  7.42$
  Q  0.6645  9.7$  4.56$  19.1$
  Q  0.6645  10.69$  3.44$  19.31$
  Q  -1.3290  10.1$  3.82$  18.9$
  Q  0.6645  19.46$  12.76$  16.84$
  Q  0.6645  18.95$  13.29$  15.52$
  Q  -1.3290  19.22$  12.7$  16.04$
  Q  0.6645  18.93$  3.13$  11.75$
  Q  0.6645  18.79$  4.65$  11.23$
  Q  -1.3290  19.16$  3.94$  11.52$
  Q  0.6645  2.41$  12.72$  9.69$
  Q  0.6645  2.67$  11.34$  10.03$
  Q  -1.3290  2.52$  12.15$  10.25$
  Q  0.6645  8.58$  5.64$  5.57$
  Q  0.6645  9.79$  5.27$  4.57$
  Q  -1.3290  9.4$  5.63$  5.27$
  Q  0.6645  15.03$  3.49$  19.56$
  Q  0.6645  14.78$  3.34$  18.04$
  Q  -1.3290  14.7$  3.14$  18.85$
  Q  0.6645  7.49$  17.51$  9.24$
  Q  0.6645  7.51$  17.1$  7.71$
  Q  -1.3290  7.12$  17.33$  8.47$
  Q  0.6645  6.64$  16.74$  11.74$
  Q  0.6645  7.97$  16.57$  12.52$
  Q  -1.3290  7.45$  16.92$  11.95$
  Q  0.6645  -0.12$  12.81$  12.34$
  Q  0.6645  1.31$  12.47$  11.82$
  Q  -1.3290  0.73$  12.83$  12.33$
  Q  0.6645  12.11$  8.01$  19.94$
  Q  0.6645  11.17$  9.2$  19.75$
  Q  -1.3290  11.4$  8.4$  19.71$
  Q  0.6645  15.63$  2.66$  8.98$
  Q  0.6645  15.72$  2.89$  7.44$
  Q  -1.3290  15.36$  2.81$  8.21$
  Q  0.6645  16.27$  17.4$  19.5$
  Q  0.6645  15.27$  16.88$  18.53$
  Q  -1.3290  15.76$  16.82$  19.2$
  Q  0.6645  5.57$  15.62$  9.85$
  Q  0.6645  6.95$  15.42$  9.56$
  Q  -1.3290  6.26$  15.17$  9.83$
  Q  0.6645  10.99$  11.16$  3.83$
  Q  0.6645  9.97$  10.98$  2.7$
  Q  -1.3290  10.75$  10.99$  3.04$
  Q  0.6645  12.58$  2.12$  12.96$
  Q  0.6645  13.75$  1.06$  12.92$
  Q  -1.3290  12.96$  1.37$  13.1$
  Q  0.6645  3.4$  16.69$  4.68$
  Q  0.6645  4.55$  17.52$  4.58$
  Q  -1.3290  3.77$  17.38$  4.48$
  Q  0.6645  18.67$  14.47$  13.06$
  Q  0.6645  18.43$  15.49$  14.2$
  Q  -1.3290  18.79$  14.83$  13.83$
  Q  0.6645  16.33$  13.12$  11.69$
  Q  0.6645  16.17$  12.86$  13.16$
  Q  -1.3290  16.3$  12.65$  12.36$
  Q  0.6645  13.75$  18.9$  11.52$
  Q  0.6645  14.9$  19.96$  11.7$
  Q  -1.3290  14.56$  19.17$  11.69$
  Q  0.6645  17.24$  15.27$  10.88$
  Q  0.6645  16.65$  14.28$  9.75$
  Q  -1.3290  16.63$  14.85$  10.4$
  Q  0.6645  12.01$  14.28$  19.66$
  Q  0.6645  12.16$  15.79$  19.23$
  Q  -1.3290  11.74$  15.07$  19.44$
  Q  0.6645  19.84$  12.02$  11.37$
  Q  0.6645  19.35$  12.35$  12.74$
  Q  -1.3290  19.71$  12.54$  12.03$
  Q  0.6645  6.91$  8.19$  20.02$
  Q  0.6645  8.18$  8.98$  20.26$
  Q  -1.3290  7.54$  8.67$  19.78$
  Q  0.6645  9.83$  18.35$  3.51$
  Q  0.6645  8.52$  18.26$  4.25$
  Q  -1.3290  9.1$  18$  3.69$
  Q  0.6645  10.51$  3.66$  2.79$
  Q  0.6645  10.33$  5.14$  2.29$
  Q  -1.3290  10.37$  4.51$  2.87$
  Q  0.6645  3.58$  16.54$  9.97$
  Q  0.6645  3.54$  17.45$  8.66$
  Q  -1.3290  3.33$  16.82$  9.2$
  Q  0.6645  12.91$  2.4$  16.18$
  Q  0.6645  13.21$  1.19$  15.26$
  Q  -1.3290  13.22$  1.62$  15.98$
  Q  0.6645  10$  8.6$  4.74$
  Q  0.6645  10.26$  7.17$  4.6$
  Q  -1.3290  10.37$  7.95$  4.41$
  Q  0.6645  13.46$  15.03$  3.01$
  Q  0.6645  13.46$  14.62$  4.53$
  Q  -1.3290  13.15$  14.67$  3.73$
  Q  0.6645  14.46$  12.79$  0.76$
  Q  0.6645  15.9$  13.22$  0.24$
  Q  -1.3290  15.1$  13.32$  0.55$
  Q  0.6645  7.08$  12.82$  13.91$
  Q  0.6645  6.8$  13.26$  15.3$
  Q  -1.3290  7.14$  13.36$  14.55$
  Q  0.6645  13.03$  2.4$  3.96$
  Q  0.6645  13.37$  2.3$  5.4$
  Q  -1.3290  13.53$  2.42$  4.62$
  Q  0.6645  20.34$  14.01$  8$
  Q  0.6645  18.93$  13.54$  7.75$
  Q  -1.3290  19.66$  13.88$  7.52$
  Q  0.6645  7.71$  19.1$  12.57$
  Q  0.6645  7.78$  19.25$  14.1$
  Q  -1.3290  7.53$  19.46$  13.32$
  Q  0.6645  7.03$  0.85$  8.59$
  Q  0.6645  8.31$  1.7$  8.71$
  Q  -1.3290  7.56$  1.48$  8.42$
  Q  0.6645  6.51$  5.79$  18.3$
  Q  0.6645  6.91$  4.53$  19.22$
  Q  -1.3290  6.68$  5.33$  19.07$
  Q  0.6645  17.02$  10.16$  5.19$
  Q  0.6645  17.73$  11.19$  4.38$
  Q  -1.3290  17.09$  10.68$  4.55$
  Q  0.6645  12.25$  6.8$  17.61$
  Q  0.6645  13.61$  6.4$  17.67$
  Q  -1.3290  12.83$  6.27$  17.84$
  Q  0.6645  6.45$  15.05$  4.16$
  Q  0.6645  5.45$  15.32$  5.36$
  Q  -1.3290  6.1$  15.49$  4.83$
  Q  0.6645  18.42$  11.61$  19.27$
  Q  0.6645  17.85$  13.12$  19.08$
  Q  -1.3290  17.95$  12.26$  18.91$
  Q  0.6645  14.03$  5.27$  6.45$
  Q  0.6645  13.89$  3.9$  7.32$
  Q  -1.3290  13.66$  4.63$  6.91$
  Q  0.6645  9.52$  18.56$  9.38$
  Q  0.6645  9.21$  17.53$  10.42$
  Q  -1.3290  9.56$  17.78$  9.71$
  Q  0.6645  16.43$  18.9$  10.88$
  Q  0.6645  17.82$  18.68$  10.32$
  Q  -1.3290  17.25$  19.06$  10.81$
  Q  0.6645  16.57$  12.95$  7.95$
  Q  0.6645  16.8$  11.92$  9.02$
  Q  -1.3290  16.94$  12.62$  8.66$
  Q  0.6645  3.34$  7.82$  11.88$
  Q  0.6645  2.42$  6.7$  12.35$
  Q  -1.3290  3.09$  7.22$  12.4$
  Q  0.6645  3.74$  5.66$  15.42$
  Q  0.6645  3.4$  5.01$  16.65$
  Q  -1.3290  3.83$  5.04$  15.94$
  Q  0.6645  19.74$  15.68$  11.4$
  Q  0.6645  18.84$  16.79$  12.02$
  Q  -1.3290  19.09$  16.2$  11.43$
  Q  0.6645  11.98$  5.33$  7.4$
  Q  0.6645  10.49$  5.65$  6.82$
  Q  -1.3290  11.17$  5.7$  7.43$
  Q  0.6645  12.17$  4.49$  16.9$
  Q  0.6645  10.86$  3.93$  17.03$
  Q  -1.3290  11.6$  3.96$  16.67$
  Q  0.6645  16.86$  15.55$  2.78$
  Q  0.6645  16.34$  14.2$  2.45$
  Q  -1.3290  16.85$  14.74$  2.79$
  Q  0.6645  7.83$  16.05$  5.58$
  Q  0.6645  8.96$  15.32$  6.19$
  Q  -1.3290  8.44$  15.96$  6.14$
  Q  0.6645  11.1$  15.08$  3.72$
  Q  0.6645  9.8$  15.86$  3.52$
  Q  -1.3290  10.28$  15.18$  3.46$
  Q  0.6645  7.92$  14.79$  0.73$
  Q  0.6645  9.08$  13.66$  0.86$
  Q  -1.3290  8.65$  14.34$  0.51$
  Q  0.6645  16.83$  10.55$  12.54$
  Q  0.6645  18.12$  9.92$  13$
  Q  -1.3290  17.31$  9.93$  12.72$
  Q  0.6645  2.58$  10.4$  13.91$
  Q  0.6645  1.33$  11.31$  13.55$
  Q  -1.3290  1.79$  10.59$  13.67$
  Q  0.6645  4.38$  10.3$  15.72$
  Q  0.6645  4.32$  11.73$  15.23$
  Q  -1.3290  4.15$  10.92$  15.22$
  Q  0.6645  4.52$  2.36$  14.59$
  Q  0.6645  6.07$  2.45$  14.89$
  Q  -1.3290  5.3$  2.14$  14.94$
  Q  0.6645  18.92$  4.76$  14.89$
  Q  0.6645  19.28$  3.28$  15.13$
  Q  -1.3290  19.37$  4.1$  15.2$
  Q  0.6645  5.65$  18.37$  7.56$
  Q  0.6645  5.89$  19.16$  6.31$
  Q  -1.3290  5.44$  18.93$  6.97$
*
