! NoMOPrint PrintBasis #MINIPRINT SMALLPRINT LARGEPRINT
! ALLPOP XYZFILE
#! BP86 3-21G   TightSCF
! ENGRAD
! B3LYP NormalPNO PModel #DecontractAux
#! VerySlowConv 
 %maxcore 5000
 %scf  maxiter   500  end 

%pal
    nprocs 32
end

%basis
    NewGTO O    # New basis for oxygen
        "aug-cc-pVTZ"
    end
    NewGTO C    # New basis for carbon
        "aug-cc-pVTZ"
    end
    NewGTO H    # New basis for hydrogen
        "cc-pVTZ"
    end
end

* xyz 0   1
  C  9.68  10.19  12.08  #1
  H  8.9  9.51  11.69  #2
  H  9.29  11.17  11.95  #3
  C  11  10.12  11.32  #4
  H  11.69  10.77  11.88  #5
  H  11.33  9.09  11.48  #6
  C  10.86  10.42  9.84  #7
  H  10.17  11.26  9.84  #8
  H  10.39  9.63  9.24  #9
  C  12.17  10.83  9.14  #10
  H  11.96  10.96  8.1  #11
  H  12.96  10.12  9.23  #12
  O  12.61  12.07  9.82  #13
  H  12.02  12.77  9.54  #14
  O  9.96  10.1  13.51  #15
  H  9.66  9.24  13.76  #16
  O  9.42  11.51  6.83  #17
  H  9.41  12.11  6.08  #18
  H  8.68  11.84  7.33  #19
  O  8.24  14.09  12.01  #20
  H  8.46  14.86  12.56  #21
  H  8.27  13.39  12.67  #22
  O  7.25  9.34  15.64  #23
  H  7.13  8.95  14.78  #24
  H  8.2  9.15  15.86  #25
  O  8.6  12.56  14.41  #26
  H  8.75  11.58  14.27  #27
  H  9.48  12.9  14.38  #28
  O  15.31  12.21  10.66  #29
  H  15.65  11.33  10.83  #30
  H  14.36  12.12  10.36  #31
  O  11.86  14.8  8.64  #32
  H  11.88  14.43  7.69  #33
  H  11.03  14.38  8.97  #34
  O  14.59  14.54  12.48  #35
  H  15.17  13.83  12.1  #36
  H  15.19  15.2  12.92  #37
  O  6.08  11.86  13.07  #38
  H  5.73  12.75  12.87  #39
  H  6.44  11.72  13.95  #40
  O  6.93  12.52  8.56  #41
  H  6.58  12.74  7.7  #42
  H  6.39  13.01  9.25  #43
  O  7.13  13.48  5.69  #44
  H  6.58  14.26  6.04  #45
  H  7.94  13.85  5.57  #46
  O  11.54  11.91  14.79  #47
  H  11.09  11.26  14.23  #48
  H  12.4  12.05  14.4  #49
  O  10.11  15.04  14.51  #50
  H  9.79  15.47  15.3  #51
  H  11.07  15.11  14.5  #52
  O  7.03  8.65  12.76  #53
  H  6.8  8.9  11.81  #54
  H  6.56  7.85  13.07  #55
  O  6.8  12.89  16.38  #56
  H  6.69  12.15  16.94  #57
  H  7.58  12.71  15.83  #58
  O  5.83  10.7  17.81  #59
  H  4.97  10.41  17.46  #60
  H  6.41  9.99  17.49  #61
  O  14.24  11.42  5.69  #62
  H  13.59  12.05  5.91  #63
  H  13.77  10.58  5.59  #64
  O  10.22  9.16  5.71  #65
  H  9.88  9.97  6.21  #66
  H  10.78  8.71  6.31  #67
  O  9.41  13.63  9.63  #68
  H  8.69  13.3  9.17  #69
  H  9.2  13.62  10.57  #70
  O  6.57  10.33  10.55  #71
  H  6.97  11.02  9.99  #72
  H  6.52  10.81  11.42  #73
  O  15.96  12.11  7.98  #74
  H  15.25  11.87  7.38  #75
  H  15.71  12.02  8.94  #76
  O  9.25  17.46  13.28  #77
  H  9.65  16.65  13.58  #78
  H  8.55  17.77  13.88  #79
  O  9.9  7.48  13.55  #80
  H  9.59  6.58  13.58  #81
  H  10.83  7.48  13.83  #82
  O  8.77  7.73  8.46  #83
  H  9.12  7.55  9.35  #84
  H  9.62  7.67  8  #85
  O  16.38  9.4  11.04  #86
  H  16.07  8.9  10.2  #87
  H  17.35  9.19  11.08  #88
  O  5.46  7.11  14.6  #89
  H  5.81  7.28  15.48  #90
  H  5.02  6.27  14.67  #91
  O  5.87  13.95  10.6  #92
  H  6.63  14.12  11.19  #93
  H  5.04  13.89  11.14  #94
  O  10.11  13.31  4.59  #95
  H  9.83  12.68  3.91  #96
  H  9.89  14.19  4.27  #97
  O  9.01  6.82  11.09  #98
  H  8.06  6.89  11.15  #99
  H  9.3  7.11  11.96  #100
  O  8.52  8.3  17.94  #101
  H  9.44  7.98  17.87  #102
  H  8.45  8.61  18.83  #103
  Q  0.6645  19.01$  10.49$  3.96$
  Q  0.6645  18.81$  11.78$  4.82$
  Q  -1.3290  18.55$  11.06$  4.43$
  Q  0.6645  13.23$  16.24$  14.64$
  Q  0.6645  13.25$  15.16$  13.53$
  Q  -1.3290  12.91$  15.76$  14.01$
  Q  0.6645  18.6$  13.94$  5.69$
  Q  0.6645  19.29$  14.12$  4.29$
  Q  -1.3290  19.16$  13.79$  5.08$
  Q  0.6645  7.23$  5.14$  12.76$
  Q  0.6645  7.18$  4.97$  11.23$
  Q  -1.3290  6.87$  5.2$  11.97$
  Q  0.6645  8.74$  15.71$  6.21$
  Q  0.6645  8.34$  16.3$  4.81$
  Q  -1.3290  8.82$  15.83$  5.36$
  Q  0.6645  2.7$  15.13$  6.27$
  Q  0.6645  3.31$  13.63$  5.9$
  Q  -1.3290  3.03$  14.46$  5.78$
  Q  0.6645  5.25$  17.61$  12.68$
  Q  0.6645  4.18$  17.29$  13.73$
  Q  -1.3290  4.92$  17.22$  13.34$
  Q  0.6645  13.28$  2.36$  10.58$
  Q  0.6645  14.77$  2.21$  10.47$
  Q  -1.3290  14$  2.42$  10.21$
  Q  0.6645  18.16$  5.65$  15.5$
  Q  0.6645  19.3$  6.69$  15.93$
  Q  -1.3290  18.92$  6.04$  15.46$
  Q  0.6645  8.91$  10.25$  20.41$
  Q  0.6645  8.56$  9.06$  21.39$
  Q  -1.3290  8.69$  9.48$  20.64$
  Q  0.6645  18.01$  17.68$  4.56$
  Q  0.6645  17.34$  17.84$  5.93$
  Q  -1.3290  18.02$  17.74$  5.41$
  Q  0.6645  5.33$  11.67$  3.3$
  Q  0.6645  6.6$  11.05$  3.63$
  Q  -1.3290  5.78$  11.01$  3.51$
  Q  0.6645  4.28$  11.19$  13.98$
  Q  0.6645  3.52$  9.82$  13.78$
  Q  -1.3290  3.61$  10.63$  14.02$
  Q  0.6645  19.04$  16.39$  6.67$
  Q  0.6645  18.24$  15.87$  7.92$
  Q  -1.3290  18.93$  16.06$  7.47$
  Q  0.6645  12.39$  8.72$  4.58$
  Q  0.6645  13.49$  8.27$  5.66$
  Q  -1.3290  13.08$  8.79$  5.07$
  Q  0.6645  12.36$  12.24$  2.28$
  Q  0.6645  12.61$  12.39$  0.76$
  Q  -1.3290  12.65$  12.61$  1.58$
  Q  0.6645  9.96$  11.98$  -0.31$
  Q  0.6645  8.53$  12.53$  -0.08$
  Q  -1.3290  9.25$  12.09$  0.12$
  Q  0.6645  9.39$  17.88$  8.17$
  Q  0.6645  10.25$  19.16$  8.58$
  Q  -1.3290  9.67$  18.72$  8.12$
  Q  0.6645  20.33$  10.57$  6.86$
  Q  0.6645  18.85$  10.04$  6.95$
  Q  -1.3290  19.6$  10.32$  7.27$
  Q  0.6645  19.26$  6.9$  8.7$
  Q  0.6645  19.42$  8.15$  7.82$
  Q  -1.3290  19.21$  7.31$  7.99$
  Q  0.6645  10.66$  8.2$  2.93$
  Q  0.6645  9.77$  8.84$  4.05$
  Q  -1.3290  10$  8.67$  3.26$
  Q  0.6645  6.4$  8.29$  3.01$
  Q  0.6645  6.2$  6.83$  3.57$
  Q  -1.3290  6.52$  7.64$  3.56$
  Q  0.6645  17.67$  16.38$  10.09$
  Q  0.6645  18.27$  15.16$  10.69$
  Q  -1.3290  17.93$  15.93$  10.72$
  Q  0.6645  1.33$  9.15$  15.13$
  Q  0.6645  1.72$  8.06$  14.22$
  Q  -1.3290  1.55$  8.4$  14.97$
  Q  0.6645  17.59$  12.81$  8.04$
  Q  0.6645  18.67$  11.92$  7.78$
  Q  -1.3290  18.4$  12.62$  8.09$
  Q  0.6645  13.69$  14.25$  19.33$
  Q  0.6645  12.81$  13.46$  18.31$
  Q  -1.3290  13.48$  13.6$  18.83$
  Q  0.6645  12.74$  10.87$  20.77$
  Q  0.6645  12.81$  12.42$  20.26$
  Q  -1.3290  12.57$  11.74$  20.74$
  Q  0.6645  2.54$  7.71$  9.91$
  Q  0.6645  3.91$  8.21$  9.86$
  Q  -1.3290  3.26$  7.92$  10.27$
  Q  0.6645  5.55$  0.79$  10.63$
  Q  0.6645  6.32$  2.15$  10.7$
  Q  -1.3290  5.88$  1.47$  11.01$
  Q  0.6645  5.13$  11.59$  5.92$
  Q  0.6645  4.32$  11.33$  7.15$
  Q  -1.3290  4.44$  11.68$  6.39$
  Q  0.6645  9.78$  2.3$  19.4$
  Q  0.6645  10.54$  2.63$  20.66$
  Q  -1.3290  10.35$  2.21$  19.99$
  Q  0.6645  8.92$  15.52$  8.66$
  Q  0.6645  7.81$  16.57$  8.21$
  Q  -1.3290  8.54$  16.14$  8.18$
  Q  0.6645  16.08$  14.05$  8.88$
  Q  0.6645  15.59$  15.53$  8.93$
  Q  -1.3290  16.11$  14.91$  8.7$
  Q  0.6645  13.73$  20.37$  3.32$
  Q  0.6645  13.05$  19.3$  4.28$
  Q  -1.3290  13.65$  19.61$  3.76$
  Q  0.6645  14.43$  13.64$  1.61$
  Q  0.6645  15.14$  14.92$  2.14$
  Q  -1.3290  14.91$  14.33$  1.57$
  Q  0.6645  3.51$  13.96$  12.78$
  Q  0.6645  4.41$  15.14$  13.35$
  Q  -1.3290  4.23$  14.37$  13.06$
  Q  0.6645  11.3$  13.48$  16.29$
  Q  0.6645  10.33$  13.33$  17.46$
  Q  -1.3290  11.08$  13.49$  17.09$
  Q  0.6645  19.7$  9.4$  11.4$
  Q  0.6645  18.91$  8.26$  11.87$
  Q  -1.3290  19.07$  9.1$  11.86$
  Q  0.6645  16.55$  4.91$  10.79$
  Q  0.6645  16.41$  4.48$  12.19$
  Q  -1.3290  16.86$  4.61$  11.5$
  Q  0.6645  9.37$  0.39$  16.85$
  Q  0.6645  8.57$  1.8$  16.67$
  Q  -1.3290  8.83$  0.99$  16.48$
  Q  0.6645  14.24$  13.19$  13.76$
  Q  0.6645  14.34$  13.49$  15.28$
  Q  -1.3290  14.21$  13$  14.59$
  Q  0.6645  7.44$  18.24$  11.17$
  Q  0.6645  7.49$  19.07$  12.46$
  Q  -1.3290  7.09$  18.63$  11.82$
  Q  0.6645  10.67$  7.15$  21.31$
  Q  0.6645  11.92$  6.44$  21.12$
  Q  -1.3290  11.33$  6.91$  20.85$
  Q  0.6645  20.31$  6.1$  10.96$
  Q  0.6645  20.96$  5.06$  10.04$
  Q  -1.3290  20.77$  5.84$  10.32$
  Q  0.6645  6.1$  8.61$  5.61$
  Q  0.6645  6.15$  8.05$  7.06$
  Q  -1.3290  5.78$  8.43$  6.38$
  Q  0.6645  18.11$  5.84$  5.08$
  Q  0.6645  17.98$  6.78$  6.33$
  Q  -1.3290  18.07$  6.6$  5.5$
  Q  0.6645  17.06$  2.69$  7.5$
  Q  0.6645  16.96$  2.56$  9.15$
  Q  -1.3290  17.26$  2.87$  8.38$
  Q  0.6645  14.24$  7$  7.4$
  Q  0.6645  14.25$  6.15$  6.13$
  Q  -1.3290  14.05$  6.81$  6.62$
  Q  0.6645  3.28$  10.56$  15.94$
  Q  0.6645  2.93$  11.17$  17.26$
  Q  -1.3290  3.19$  10.54$  16.79$
  Q  0.6645  0.5$  9.43$  12.06$
  Q  0.6645  -0.18$  8.94$  13.4$
  Q  -1.3290  0.25$  8.87$  12.65$
  Q  0.6645  6.36$  18.23$  14.31$
  Q  0.6645  6.93$  19.5$  14.89$
  Q  -1.3290  6.95$  18.67$  14.68$
  Q  0.6645  14.6$  19.08$  14.37$
  Q  0.6645  13.17$  19.19$  13.63$
  Q  -1.3290  13.98$  19.43$  13.87$
  Q  0.6645  16.36$  9.63$  6.56$
  Q  0.6645  16.48$  10.31$  7.87$
  Q  -1.3290  16.69$  9.71$  7.33$
  Q  0.6645  14.35$  4.1$  4.87$
  Q  0.6645  15.43$  3.98$  5.91$
  Q  -1.3290  14.69$  4.31$  5.59$
  Q  0.6645  18.36$  11.54$  17.11$
  Q  0.6645  17.04$  11.38$  17.83$
  Q  -1.3290  17.57$  11.25$  17.18$
  Q  0.6645  15.13$  8.67$  1.69$
  Q  0.6645  15.02$  8.89$  3.28$
  Q  -1.3290  14.75$  8.66$  2.46$
  Q  0.6645  11.84$  17.82$  6.23$
  Q  0.6645  10.87$  18.93$  6.29$
  Q  -1.3290  11.5$  18.52$  5.96$
  Q  0.6645  4.08$  13.78$  20.54$
  Q  0.6645  5.34$  14.05$  19.65$
  Q  -1.3290  4.94$  13.9$  20.39$
  Q  0.6645  13.33$  15.88$  9.62$
  Q  0.6645  13.93$  15.55$  10.92$
  Q  -1.3290  13.92$  15.9$  10.2$
  Q  0.6645  15.55$  11.71$  4.25$
  Q  0.6645  17.05$  11.7$  3.94$
  Q  -1.3290  16.22$  12.02$  3.88$
  Q  0.6645  -0.03$  7.07$  9.08$
  Q  0.6645  0.96$  7.54$  8$
  Q  -1.3290  0.64$  7.52$  8.77$
  Q  0.6645  15.32$  17.44$  6.27$
  Q  0.6645  15.48$  18.76$  7.02$
  Q  -1.3290  15.63$  17.95$  6.84$
  Q  0.6645  17.84$  9.27$  17.65$
  Q  0.6645  17.49$  7.99$  18.25$
  Q  -1.3290  17.43$  8.55$  17.67$
  Q  0.6645  16.58$  13.28$  0.66$
  Q  0.6645  17.02$  12.68$  1.93$
  Q  -1.3290  17.14$  12.94$  1.13$
  Q  0.6645  13.63$  8.88$  17.41$
  Q  0.6645  13.13$  10.2$  17.01$
  Q  -1.3290  13.05$  9.45$  17.36$
  Q  0.6645  17.78$  12.39$  13.67$
  Q  0.6645  18.07$  13.2$  12.43$
  Q  -1.3290  17.91$  13.12$  13.24$
  Q  0.6645  8.61$  16.41$  17.34$
  Q  0.6645  7.78$  16.91$  16.2$
  Q  -1.3290  8.46$  16.64$  16.55$
  Q  0.6645  15.46$  12.74$  19.17$
  Q  0.6645  16.86$  13.07$  19.65$
  Q  -1.3290  16.26$  12.6$  19.26$
  Q  0.6645  3.36$  8.41$  17.29$
  Q  0.6645  3.36$  6.93$  16.91$
  Q  -1.3290  3.51$  7.6$  17.43$
  Q  0.6645  11.35$  10.09$  3.33$
  Q  0.6645  12.89$  10.09$  2.9$
  Q  -1.3290  12.08$  10.4$  3$
  Q  0.6645  20.25$  10.12$  9.1$
  Q  0.6645  21.47$  9.2$  9.58$
  Q  -1.3290  20.81$  9.76$  9.68$
  Q  0.6645  19.86$  14.73$  14.04$
  Q  0.6645  21$  15.57$  14.6$
  Q  -1.3290  20.66$  14.92$  14.17$
  Q  0.6645  7.29$  3.35$  13.98$
  Q  0.6645  6.22$  2.57$  13.12$
  Q  -1.3290  6.53$  2.98$  13.8$
  Q  0.6645  7.94$  13.72$  17.58$
  Q  0.6645  8.83$  13.18$  18.87$
  Q  -1.3290  8.55$  13.7$  18.21$
  Q  0.6645  19.62$  7.65$  4.91$
  Q  0.6645  21.18$  7.75$  4.71$
  Q  -1.3290  20.36$  7.95$  4.59$
  Q  0.6645  15.27$  8.6$  12.83$
  Q  0.6645  15.24$  8.75$  14.35$
  Q  -1.3290  15.07$  8.36$  13.61$
  Q  0.6645  8.36$  19.43$  6.35$
  Q  0.6645  8.09$  20.16$  4.97$
  Q  -1.3290  7.92$  19.67$  5.64$
  Q  0.6645  11.24$  7.07$  18.79$
  Q  0.6645  11.65$  8.08$  17.71$
  Q  -1.3290  11.36$  7.33$  18.01$
  Q  0.6645  10.87$  11.57$  19.84$
  Q  0.6645  10.01$  11.25$  18.62$
  Q  -1.3290  10.18$  11.54$  19.42$
  Q  0.6645  19.79$  13.18$  11.11$
  Q  0.6645  18.94$  13.07$  9.9$
  Q  -1.3290  19.06$  13.22$  10.72$
  Q  0.6645  4.07$  14.97$  17.26$
  Q  0.6645  3.56$  14.68$  15.84$
  Q  -1.3290  3.54$  15.03$  16.6$
  Q  0.6645  5.7$  3.71$  17.67$
  Q  0.6645  6.59$  3.29$  16.52$
  Q  -1.3290  6.09$  3.14$  17.21$
  Q  0.6645  5.96$  2.36$  6.82$
  Q  0.6645  6.8$  3.55$  6.45$
  Q  -1.3290  6.42$  3.02$  6.97$
  Q  0.6645  16.96$  16.17$  13.97$
  Q  0.6645  16.81$  16.38$  12.42$
  Q  -1.3290  16.69$  16.58$  13.27$
  Q  0.6645  12.33$  6.32$  3.4$
  Q  0.6645  13.01$  7.64$  2.73$
  Q  -1.3290  12.35$  7.09$  2.99$
  Q  0.6645  16.69$  2.27$  13.45$
  Q  0.6645  17.46$  1$  13.58$
  Q  -1.3290  17.39$  1.82$  13.56$
  Q  0.6645  5.81$  15.82$  17.85$
  Q  0.6645  5.94$  14.45$  17.27$
  Q  -1.3290  5.77$  14.97$  17.87$
  Q  0.6645  18.55$  15.58$  15.9$
  Q  0.6645  18.18$  14.36$  14.94$
  Q  -1.3290  18.1$  15.1$  15.33$
  Q  0.6645  12.13$  4.48$  9.07$
  Q  0.6645  11.9$  6.03$  9.21$
  Q  -1.3290  12.14$  5.26$  9.44$
  Q  0.6645  7.08$  7.15$  8.66$
  Q  0.6645  5.68$  6.4$  8.65$
  Q  -1.3290  6.24$  7.05$  8.76$
  Q  0.6645  18.53$  5.69$  12.33$
  Q  0.6645  19.27$  6.46$  13.43$
  Q  -1.3290  19.04$  6.28$  12.64$
  Q  0.6645  6.26$  6.17$  17.87$
  Q  0.6645  7.39$  6.97$  17.4$
  Q  -1.3290  6.78$  6.43$  17.29$
  Q  0.6645  2.6$  5.26$  15.27$
  Q  0.6645  1.75$  6.48$  15.68$
  Q  -1.3290  2.23$  5.8$  15.79$
  Q  0.6645  11.79$  19.02$  12.08$
  Q  0.6645  10.51$  18.54$  12.94$
  Q  -1.3290  11.18$  19.07$  12.72$
  Q  0.6645  9.25$  4.36$  16.1$
  Q  0.6645  7.89$  4.95$  16.5$
  Q  -1.3290  8.45$  4.34$  16.36$
  Q  0.6645  11.59$  13.7$  5.53$
  Q  0.6645  12.75$  14.62$  5.66$
  Q  -1.3290  12.27$  14$  5.93$
  Q  0.6645  5.67$  4.45$  4.94$
  Q  0.6645  6.71$  4.15$  3.75$
  Q  -1.3290  6.39$  4.5$  4.5$
  Q  0.6645  5.49$  17.87$  9.07$
  Q  0.6645  6.28$  16.9$  9.92$
  Q  -1.3290  6.05$  17.27$  9.2$
  Q  0.6645  4.72$  15.55$  6.01$
  Q  0.6645  5.47$  16.03$  7.26$
  Q  -1.3290  5.4$  15.61$  6.54$
  Q  0.6645  15.15$  2.8$  17.4$
  Q  0.6645  14.21$  3.06$  18.49$
  Q  -1.3290  14.72$  3.3$  17.89$
  Q  0.6645  5.33$  5.98$  19.91$
  Q  0.6645  4.4$  6.3$  18.78$
  Q  -1.3290  4.9$  5.8$  19.22$
  Q  0.6645  9.7$  4.26$  13.83$
  Q  0.6645  9.1$  4.07$  12.53$
  Q  -1.3290  9.17$  4.43$  13.24$
  Q  0.6645  15.69$  5.87$  16.26$
  Q  0.6645  16.03$  6.71$  14.98$
  Q  -1.3290  16.01$  6.02$  15.49$
  Q  0.6645  3.2$  8.2$  2.69$
  Q  0.6645  4.29$  8.37$  3.85$
  Q  -1.3290  3.69$  8$  3.38$
  Q  0.6645  17.76$  18.52$  13.29$
  Q  0.6645  18.99$  18.55$  12.4$
  Q  -1.3290  18.44$  18.88$  12.91$
  Q  0.6645  10.5$  6.51$  6.34$
  Q  0.6645  11.99$  6.57$  6.88$
  Q  -1.3290  11.13$  6.73$  6.89$
  Q  0.6645  5.58$  9.76$  19.73$
  Q  0.6645  4.27$  9.11$  20.51$
  Q  -1.3290  5.07$  9.44$  20.4$
  Q  0.6645  15.27$  4.31$  14.25$
  Q  0.6645  14.4$  3.79$  13.17$
  Q  -1.3290  15.09$  3.79$  13.64$
  Q  0.6645  13.06$  17.76$  10.7$
  Q  0.6645  13.81$  18.98$  11.04$
  Q  -1.3290  13.13$  18.55$  10.89$
  Q  0.6645  4.6$  4.19$  7.69$
  Q  0.6645  4.06$  4.91$  8.96$
  Q  -1.3290  4.44$  4.88$  8.22$
  Q  0.6645  11.38$  14.29$  1.7$
  Q  0.6645  10.41$  14.64$  0.59$
  Q  -1.3290  10.77$  14.73$  1.34$
  Q  0.6645  15.97$  8.88$  21.16$
  Q  0.6645  14.35$  8.88$  21.13$
  Q  -1.3290  15.17$  8.63$  21.41$
  Q  0.6645  5.01$  5.37$  11.41$
  Q  0.6645  3.53$  5.89$  11.31$
  Q  -1.3290  4.16$  5.33$  11.32$
  Q  0.6645  16.59$  19.48$  9.66$
  Q  0.6645  15.84$  20.44$  10.73$
  Q  -1.3290  16.09$  20.15$  9.97$
  Q  0.6645  15.38$  21.08$  6.64$
  Q  0.6645  15.11$  20.75$  8.25$
  Q  -1.3290  14.97$  20.85$  7.37$
  Q  0.6645  12.74$  5.42$  12.92$
  Q  0.6645  13$  5.03$  11.48$
  Q  -1.3290  12.92$  4.9$  12.3$
  Q  0.6645  19.23$  17.41$  10.75$
  Q  0.6645  20.51$  18.07$  10.19$
  Q  -1.3290  20.04$  17.68$  10.8$
  Q  0.6645  16.79$  2.4$  11.27$
  Q  0.6645  16.92$  0.96$  11.04$
  Q  -1.3290  16.61$  1.69$  10.87$
  Q  0.6645  18.06$  10.51$  15.27$
  Q  0.6645  18.56$  10.05$  13.8$
  Q  -1.3290  18.45$  10.57$  14.51$
  Q  0.6645  9.44$  5.8$  1.42$
  Q  0.6645  9.69$  5.5$  2.88$
  Q  -1.3290  9.71$  5.33$  2.05$
  Q  0.6645  4.06$  7.6$  13.5$
  Q  0.6645  3.4$  8.09$  12.29$
  Q  -1.3290  3.49$  8.03$  13.09$
  Q  0.6645  13.51$  5.03$  16.84$
  Q  0.6645  12.31$  5.97$  16.89$
  Q  -1.3290  12.87$  5.45$  16.52$
  Q  0.6645  6.86$  3.25$  8.88$
  Q  0.6645  8.12$  3.66$  9.85$
  Q  -1.3290  7.32$  3.41$  9.62$
  Q  0.6645  14.97$  15.32$  5.46$
  Q  0.6645  14.45$  16.28$  4.42$
  Q  -1.3290  14.45$  15.9$  5.17$
  Q  0.6645  12.92$  9.44$  19.45$
  Q  0.6645  12.21$  8.65$  20.56$
  Q  -1.3290  12.73$  9.21$  20.23$
  Q  0.6645  14.77$  16.2$  16.16$
  Q  0.6645  13.69$  17.25$  16.5$
  Q  -1.3290  14.39$  16.97$  16.13$
  Q  0.6645  9.71$  17.94$  15.89$
  Q  0.6645  10.61$  18.94$  15.18$
  Q  -1.3290  10.27$  18.58$  15.84$
  Q  0.6645  14.71$  4.5$  9.4$
  Q  0.6645  16.11$  4.64$  8.71$
  Q  -1.3290  15.4$  4.91$  9.14$
  Q  0.6645  11.07$  3$  5.36$
  Q  0.6645  10.49$  2.28$  4.19$
  Q  -1.3290  10.77$  2.94$  4.6$
  Q  0.6645  3.65$  6.23$  7.24$
  Q  0.6645  3.74$  7.5$  6.51$
  Q  -1.3290  3.33$  6.88$  6.86$
  Q  0.6645  11.99$  16.55$  1.3$
  Q  0.6645  13.54$  17.03$  1.55$
  Q  -1.3290  12.72$  17.03$  1.19$
  Q  0.6645  11.87$  21.37$  9.38$
  Q  0.6645  11.75$  20.21$  10.23$
  Q  -1.3290  11.44$  20.78$  9.72$
  Q  0.6645  21.03$  8.84$  15.56$
  Q  0.6645  20.04$  9.78$  14.74$
  Q  -1.3290  20.82$  9.44$  15$
  Q  0.6645  9.22$  1.06$  7.02$
  Q  0.6645  10.62$  0.36$  7.37$
  Q  -1.3290  9.99$  0.69$  6.88$
  Q  0.6645  5.98$  9.35$  0.51$
  Q  0.6645  6.28$  10$  1.85$
  Q  -1.3290  6.29$  9.37$  1.3$
  Q  0.6645  11.49$  0.49$  16.35$
  Q  0.6645  11.02$  0.91$  14.94$
  Q  -1.3290  11.49$  0.97$  15.68$
  Q  0.6645  21.27$  11.45$  10.89$
  Q  0.6645  22.36$  12.43$  11.56$
  Q  -1.3290  21.58$  12.16$  11.28$
  Q  0.6645  4.92$  3.91$  14.06$
  Q  0.6645  3.97$  4.47$  12.96$
  Q  -1.3290  4.24$  4.34$  13.75$
  Q  0.6645  15.7$  7.63$  17.57$
  Q  0.6645  14.99$  6.74$  18.53$
  Q  -1.3290  15.05$  7.26$  17.89$
  Q  0.6645  12.57$  6.46$  14.89$
  Q  0.6645  13.32$  7.53$  13.84$
  Q  -1.3290  12.66$  6.98$  14.16$
  Q  0.6645  8.02$  18.22$  4.4$
  Q  0.6645  8.33$  17.67$  2.93$
  Q  -1.3290  7.9$  17.79$  3.66$
  Q  0.6645  8.76$  15.72$  21.25$
  Q  0.6645  9.22$  15.23$  19.91$
  Q  -1.3290  9.33$  15.47$  20.68$
  Q  0.6645  15.43$  7.02$  9.22$
  Q  0.6645  16.02$  8.06$  8.26$
  Q  -1.3290  15.54$  7.79$  8.92$
  Q  0.6645  8.7$  7.73$  1.22$
  Q  0.6645  8.08$  7.21$  -0.02$
  Q  -1.3290  8.74$  7.39$  0.47$
  Q  0.6645  15.99$  6.76$  0.59$
  Q  0.6645  15.89$  6.31$  2.23$
  Q  -1.3290  16.22$  6.41$  1.41$
  Q  0.6645  13.54$  0.11$  7.65$
  Q  0.6645  13.36$  1.27$  8.54$
  Q  -1.3290  13.07$  0.64$  8.1$
  Q  0.6645  9.16$  20.79$  10.08$
  Q  0.6645  8.45$  21.27$  11.36$
  Q  -1.3290  8.53$  21.1$  10.54$
  Q  0.6645  14.64$  17.97$  3.03$
  Q  0.6645  15.84$  17.08$  2.65$
  Q  -1.3290  15.03$  17.23$  2.79$
  Q  0.6645  20.59$  15.62$  8.33$
  Q  0.6645  21.58$  15.18$  9.49$
  Q  -1.3290  21.31$  15.34$  8.68$
  Q  0.6645  1.69$  10.74$  4.77$
  Q  0.6645  3.18$  10.78$  4.43$
  Q  -1.3290  2.34$  10.89$  4.29$
  Q  0.6645  3.52$  3.52$  10.36$
  Q  0.6645  3.23$  2.05$  10.25$
  Q  -1.3290  3.11$  2.85$  10.06$
  Q  0.6645  8.57$  5.44$  4.91$
  Q  0.6645  8.58$  6.83$  4.33$
  Q  -1.3290  8.93$  6.12$  4.64$
  Q  0.6645  2.59$  12.2$  11.65$
  Q  0.6645  2.59$  11.84$  13.09$
  Q  -1.3290  2.43$  12.36$  12.46$
  Q  0.6645  0.64$  5.84$  11.54$
  Q  0.6645  1.59$  6.69$  12.3$
  Q  -1.3290  1.31$  5.96$  12$
  Q  0.6645  16.8$  9.87$  4.2$
  Q  0.6645  16.87$  8.29$  4.65$
  Q  -1.3290  16.51$  9.07$  4.46$
  Q  0.6645  16.27$  17.98$  15.31$
  Q  0.6645  16.45$  19.31$  16.24$
  Q  -1.3290  16.56$  18.78$  15.55$
  Q  0.6645  18.58$  18.05$  8.36$
  Q  0.6645  17.16$  17.78$  8.28$
  Q  -1.3290  17.82$  18.02$  8.69$
  Q  0.6645  10.63$  3.09$  10.55$
  Q  0.6645  10.23$  4.58$  10.47$
  Q  -1.3290  10.12$  3.77$  10.51$
  Q  0.6645  16.25$  14.11$  6.53$
  Q  0.6645  16.71$  13.76$  4.98$
  Q  -1.3290  16.51$  14.24$  5.7$
  Q  0.6645  10.94$  9.98$  17.09$
  Q  0.6645  10.96$  11.33$  16.57$
  Q  -1.3290  10.65$  10.72$  17.02$
  Q  0.6645  12.77$  4.24$  2.27$
  Q  0.6645  12.12$  4.13$  3.63$
  Q  -1.3290  12.73$  4.39$  3.09$
  Q  0.6645  12.06$  2.86$  12.39$
  Q  0.6645  11.49$  1.41$  12.1$
  Q  -1.3290  11.9$  2.15$  11.94$
  Q  0.6645  12.15$  17.23$  18.35$
  Q  0.6645  11.47$  17.67$  17.07$
  Q  -1.3290  12.14$  17.52$  17.56$
  Q  0.6645  14.89$  11.18$  15.52$
  Q  0.6645  15.85$  10.54$  16.37$
  Q  -1.3290  15.21$  10.51$  15.87$
  Q  0.6645  16.5$  14.51$  16.38$
  Q  0.6645  15.38$  14.2$  17.57$
  Q  -1.3290  15.71$  14.34$  16.74$
  Q  0.6645  8.68$  11.58$  1.94$
  Q  0.6645  8.89$  10.38$  2.88$
  Q  -1.3290  8.63$  11.16$  2.68$
  Q  0.6645  3.12$  11.09$  9.59$
  Q  0.6645  1.91$  11.97$  9.13$
  Q  -1.3290  2.46$  11.6$  9.69$
  Q  0.6645  6.1$  7.79$  20.98$
  Q  0.6645  6.12$  6.67$  22$
  Q  -1.3290  6.37$  7.05$  21.28$
  Q  0.6645  12.51$  2.59$  7.31$
  Q  0.6645  13.05$  3.86$  6.76$
  Q  -1.3290  12.49$  3.39$  7.18$
  Q  0.6645  5.31$  10.19$  9.19$
  Q  0.6645  4.66$  9.41$  8$
  Q  -1.3290  4.7$  9.97$  8.63$
  Q  0.6645  12$  3.75$  15.12$
  Q  0.6645  11.1$  2.76$  15.35$
  Q  -1.3290  11.29$  3.46$  15.05$
*
