! NoMOPrint PrintBasis #MINIPRINT SMALLPRINT LARGEPRINT
! ALLPOP XYZFILE
#! BP86 3-21G   TightSCF
! ENGRAD
! B3LYP NormalPNO PModel #DecontractAux
#! VerySlowConv 
 %maxcore 5000
 %scf  maxiter   500  end 

%pal
    nprocs 32
end

%basis
    NewGTO O    # New basis for oxygen
        "aug-cc-pVTZ"
    end
    NewGTO C    # New basis for carbon
        "aug-cc-pVTZ"
    end
    NewGTO H    # New basis for hydrogen
        "cc-pVTZ"
    end
end

* xyz 0   1
  C  9.82  11.05  9.1  #1
  H  9.23  11.42  10.01  #2
  H  9.21  10.57  8.38  #3
  C  10.95  10.12  9.53  #4
  H  10.48  9.2  9.89  #5
  H  11.57  10.02  8.64  #6
  C  11.98  10.52  10.57  #7
  H  12.64  11.26  10.08  #8
  H  12.66  9.67  10.82  #9
  C  11.39  11.12  11.85  #10
  H  10.28  11.27  11.73  #11
  H  11.96  12  12.12  #12
  O  11.53  10.07  12.89  #13
  H  11.33  10.52  13.7  #14
  O  10.43  12.23  8.56  #15
  H  9.69  12.67  8.16  #16
  O  12.98  7.88  12.29  #17
  H  12.42  8.62  12.52  #18
  H  12.47  7.2  11.75  #19
  O  14.6  13.05  10.12  #20
  H  15.42  13.44  9.8  #21
  H  14.86  12.72  11  #22
  O  8.89  12.96  6.29  #23
  H  9.69  12.86  5.8  #24
  H  8.18  12.98  5.59  #25
  O  15.35  9.1  11.28  #26
  H  14.48  8.64  11.31  #27
  H  15.26  9.78  10.59  #28
  O  8.82  14.1  11.45  #29
  H  8.9  15.1  11.48  #30
  H  8.32  13.91  10.6  #31
  O  15.14  10.37  8.73  #32
  H  14.36  9.85  8.49  #33
  H  14.93  11.29  8.76  #34
  O  17.98  10.58  9.19  #35
  H  17.21  10.04  9.17  #36
  H  18  11.01  8.33  #37
  O  5.5  13.75  10.65  #38
  H  5.87  14.35  11.32  #39
  H  5.47  12.9  11.13  #40
  O  9.35  16.8  13.14  #41
  H  9.72  16.18  13.89  #42
  H  8.54  17.21  13.48  #43
  O  15.65  7.08  8.77  #44
  H  15.45  7.15  9.72  #45
  H  14.82  6.74  8.48  #46
  O  6.29  12.59  4.3  #47
  H  5.8  12.36  5.03  #48
  H  6.49  11.71  3.86  #49
  O  11.6  9.86  16.67  #50
  H  12.1  9.14  16.36  #51
  H  12.19  10.54  16.48  #52
  O  11.29  5.85  11.42  #53
  H  10.74  6.15  12.21  #54
  H  11.66  4.97  11.67  #55
  O  14.76  9.74  14.42  #56
  H  14.57  9.62  13.47  #57
  H  15.62  9.26  14.55  #58
  O  18.01  7.72  10.95  #59
  H  18.29  7.28  11.76  #60
  H  17.18  8.26  11.16  #61
  O  9.51  9.65  5.29  #62
  H  9.32  10.53  5.5  #63
  H  8.83  9.17  5.76  #64
  O  11.37  6.7  8.78  #65
  H  11.39  6.38  9.7  #66
  H  10.46  6.88  8.63  #67
  O  8.87  15.85  7.03  #68
  H  8.23  16.13  7.67  #69
  H  8.65  15.03  6.57  #70
  O  8.59  9.49  14.33  #71
  H  8.28  9.16  13.47  #72
  H  7.99  9.15  14.97  #73
  O  8.65  16.57  9.95  #74
  H  8.38  17.49  9.72  #75
  H  9.5  16.34  9.57  #76
  O  10.12  11.7  14.79  #77
  H  9.39  11.02  14.74  #78
  H  9.62  12.5  14.59  #79
  O  14.94  6.45  13.69  #80
  H  15.28  5.86  13.07  #81
  H  14.33  7.03  13.26  #82
  O  11.3  12.96  4.5  #83
  H  11.45  12.31  3.79  #84
  H  11.41  13.84  4.16  #85
  O  13.18  8.34  7.54  #86
  H  12.48  7.92  8.05  #87
  H  12.76  9.08  7.13  #88
  O  16.54  14.52  8.6  #89
  H  16.66  14.62  7.64  #90
  H  17.39  14.3  8.94  #91
  O  8.25  13.43  13.88  #92
  H  8.45  13.4  12.9  #93
  H  7.49  12.86  14.03  #94
  O  14.94  12.31  13.14  #95
  H  14.17  12.9  13.17  #96
  H  15.04  11.76  13.94  #97
  O  10.73  7.33  14.05  #98
  H  10.65  8.25  13.7  #99
  H  11.66  7.29  14.34  #100
  O  12.76  13.08  7.91  #101
  H  13.25  13.19  8.77  #102
  H  11.92  12.73  8.16  #103
  O  12.68  10.84  6.11  #104
  H  12.22  10.67  5.29  #105
  H  12.54  11.81  6.17  #106
  O  6.18  15.25  12.92  #107
  H  5.58  15.1  13.7  #108
  H  7.04  14.8  13.1  #109
  Q  0.6645  13.15$  2.07$  11.34$
  Q  0.6645  13.74$  1.64$  10.07$
  Q  -1.3290  13.6$  1.55$  10.89$
  Q  0.6645  9.31$  19.66$  9.33$
  Q  0.6645  9.91$  19.33$  10.66$
  Q  -1.3290  9.39$  19.76$  10.18$
  Q  0.6645  13$  11.53$  0.28$
  Q  0.6645  13.61$  12.28$  1.41$
  Q  -1.3290  13.2$  11.63$  1.07$
  Q  0.6645  2.49$  10.1$  11.97$
  Q  0.6645  1.75$  11.13$  11.08$
  Q  -1.3290  2.3$  10.88$  11.71$
  Q  0.6645  12.32$  6.04$  19.64$
  Q  0.6645  12.83$  5.24$  18.33$
  Q  -1.3290  12.73$  5.93$  18.84$
  Q  0.6645  18.53$  8.87$  5.88$
  Q  0.6645  19.86$  9.46$  5.31$
  Q  -1.3290  19.02$  9.41$  5.44$
  Q  0.6645  17.81$  12.19$  18.24$
  Q  0.6645  17.51$  12.49$  16.88$
  Q  -1.3290  17.33$  12.54$  17.66$
  Q  0.6645  10.98$  18.72$  16.71$
  Q  0.6645  10.12$  17.88$  15.72$
  Q  -1.3290  10.28$  18.4$  16.36$
  Q  0.6645  10.41$  15.44$  3.02$
  Q  0.6645  11.02$  14.99$  1.67$
  Q  -1.3290  11.02$  15.21$  2.48$
  Q  0.6645  2.42$  14.17$  9.61$
  Q  0.6645  3.88$  14.33$  10.11$
  Q  -1.3290  3.11$  14.61$  9.88$
  Q  0.6645  9.06$  7.81$  1.82$
  Q  0.6645  10.43$  7.24$  1.19$
  Q  -1.3290  9.65$  7.68$  1.2$
  Q  0.6645  8.34$  5.67$  8.69$
  Q  0.6645  8.17$  7.18$  8.64$
  Q  -1.3290  8.48$  6.49$  8.96$
  Q  0.6645  6.3$  16.42$  16.34$
  Q  0.6645  4.95$  16.99$  15.47$
  Q  -1.3290  5.67$  17$  16.03$
  Q  0.6645  16.38$  7.68$  7.22$
  Q  0.6645  17.05$  6.92$  6.02$
  Q  -1.3290  16.67$  7.61$  6.43$
  Q  0.6645  18.98$  10.04$  14.59$
  Q  0.6645  19.05$  8.43$  14.45$
  Q  -1.3290  19.32$  9.25$  14.45$
  Q  0.6645  1.27$  11.74$  7.37$
  Q  0.6645  1.89$  11.32$  8.52$
  Q  -1.3290  1.91$  11.49$  7.76$
  Q  0.6645  12.84$  3.33$  17.16$
  Q  0.6645  11.85$  2.58$  17.97$
  Q  -1.3290  12.55$  3.01$  17.88$
  Q  0.6645  5.5$  4.02$  8.24$
  Q  0.6645  4.61$  3.66$  6.88$
  Q  -1.3290  4.91$  4.15$  7.57$
  Q  0.6645  6.79$  4.96$  14.95$
  Q  0.6645  6.14$  3.52$  15.36$
  Q  -1.3290  6.68$  4.26$  15.42$
  Q  0.6645  5.64$  12.29$  18.55$
  Q  0.6645  5.31$  11.13$  19.38$
  Q  -1.3290  5.33$  11.93$  19.23$
  Q  0.6645  5.85$  12.8$  9.11$
  Q  0.6645  5.58$  12.31$  7.71$
  Q  -1.3290  5.92$  12.29$  8.48$
  Q  0.6645  13.52$  3.89$  12.79$
  Q  0.6645  12.33$  3.1$  13.42$
  Q  -1.3290  12.78$  3.48$  12.78$
  Q  0.6645  9.54$  2.1$  18.61$
  Q  0.6645  9.76$  2.64$  17.23$
  Q  -1.3290  9.79$  2.07$  17.84$
  Q  0.6645  5.98$  10.56$  12.23$
  Q  0.6645  4.57$  11$  11.95$
  Q  -1.3290  5.39$  11.1$  12.08$
  Q  0.6645  10.08$  17.65$  4.54$
  Q  0.6645  9.91$  16.54$  5.57$
  Q  -1.3290  10.07$  16.85$  4.81$
  Q  0.6645  12.69$  20.57$  6.19$
  Q  0.6645  12.54$  21.86$  5.38$
  Q  -1.3290  12.39$  21.35$  6.01$
  Q  0.6645  6.68$  8.25$  12.05$
  Q  0.6645  7.27$  9.15$  10.98$
  Q  -1.3290  7.2$  8.85$  11.75$
  Q  0.6645  12.23$  17.25$  4.95$
  Q  0.6645  13.36$  16.45$  5.53$
  Q  -1.3290  13.04$  17.09$  5.06$
  Q  0.6645  17.47$  14.62$  5.32$
  Q  0.6645  16.13$  13.75$  5.09$
  Q  -1.3290  16.7$  14.26$  5.49$
  Q  0.6645  6.95$  19.6$  3.58$
  Q  0.6645  6.37$  18.33$  4.28$
  Q  -1.3290  6.76$  19.09$  4.19$
  Q  0.6645  9.89$  17.96$  7.75$
  Q  0.6645  11.19$  18.88$  7.77$
  Q  -1.3290  10.31$  18.69$  7.76$
  Q  0.6645  12.56$  20.42$  12.53$
  Q  0.6645  13.28$  21.77$  12.2$
  Q  -1.3290  12.75$  21.22$  12.62$
  Q  0.6645  12$  15.04$  9.19$
  Q  0.6645  12.34$  16.22$  10.11$
  Q  -1.3290  11.83$  15.77$  9.61$
  Q  0.6645  9.83$  4.83$  16.45$
  Q  0.6645  8.6$  4.06$  15.81$
  Q  -1.3290  9.41$  4.17$  16.11$
  Q  0.6645  16.65$  5.51$  17.26$
  Q  0.6645  16.46$  4.22$  17.86$
  Q  -1.3290  16.71$  4.7$  17.25$
  Q  0.6645  6.91$  6.69$  1.75$
  Q  0.6645  6.73$  7.02$  3.12$
  Q  -1.3290  7.13$  6.64$  2.53$
  Q  0.6645  7.18$  8.57$  7.37$
  Q  0.6645  7.16$  7.37$  6.43$
  Q  -1.3290  7.52$  8.02$  6.84$
  Q  0.6645  9.93$  11.68$  19.24$
  Q  0.6645  10.59$  12.65$  20.21$
  Q  -1.3290  10.59$  12.01$  19.68$
  Q  0.6645  -0.08$  10.13$  10.67$
  Q  0.6645  -0.07$  10.42$  9.21$
  Q  -1.3290  0.21$  10.51$  10.02$
  Q  0.6645  14.88$  8.09$  21.24$
  Q  0.6645  14.38$  8.06$  19.81$
  Q  -1.3290  14.29$  8.19$  20.61$
  Q  0.6645  18.41$  12.51$  14.51$
  Q  0.6645  19.46$  12.21$  15.62$
  Q  -1.3290  18.67$  12.25$  15.27$
  Q  0.6645  15.53$  20.24$  10.92$
  Q  0.6645  15.21$  18.73$  10.44$
  Q  -1.3290  15.42$  19.59$  10.36$
  Q  0.6645  13.64$  7.57$  15.46$
  Q  0.6645  13.25$  6.97$  16.77$
  Q  -1.3290  13.1$  7.41$  16.06$
  Q  0.6645  14.43$  6.87$  4.87$
  Q  0.6645  13.53$  7.32$  5.98$
  Q  -1.3290  13.75$  6.81$  5.35$
  Q  0.6645  8.86$  5.09$  20.6$
  Q  0.6645  9.63$  6.23$  21.32$
  Q  -1.3290  8.96$  5.87$  20.9$
  Q  0.6645  19.95$  17$  16.25$
  Q  0.6645  19.25$  16.25$  15.11$
  Q  -1.3290  19.28$  16.76$  15.79$
  Q  0.6645  8.07$  6.02$  12.65$
  Q  0.6645  8.34$  6.23$  11.08$
  Q  -1.3290  8.12$  5.82$  11.79$
  Q  0.6645  6.7$  6$  18$
  Q  0.6645  5.95$  4.94$  17.2$
  Q  -1.3290  6.05$  5.48$  17.84$
  Q  0.6645  17.35$  4.68$  5.28$
  Q  0.6645  18.7$  5.35$  5.05$
  Q  -1.3290  17.91$  5.28$  5.31$
  Q  0.6645  14.98$  10.75$  19.01$
  Q  0.6645  15.91$  11.2$  17.89$
  Q  -1.3290  15.38$  10.65$  18.29$
  Q  0.6645  10.6$  4.26$  2.47$
  Q  0.6645  11.27$  3.09$  1.73$
  Q  -1.3290  10.63$  3.57$  1.99$
  Q  0.6645  15.82$  9.06$  5.56$
  Q  0.6645  14.81$  10.2$  5.77$
  Q  -1.3290  15.4$  9.78$  5.33$
  Q  0.6645  16.63$  8.13$  15.98$
  Q  0.6645  16.64$  7.54$  14.65$
  Q  -1.3290  16.95$  7.94$  15.25$
  Q  0.6645  13.48$  15.16$  13.99$
  Q  0.6645  12.03$  14.91$  13.33$
  Q  -1.3290  12.8$  14.75$  13.71$
  Q  0.6645  20.46$  8.2$  8.78$
  Q  0.6645  19.26$  9.27$  8.98$
  Q  -1.3290  20.07$  9$  8.84$
  Q  0.6645  5.64$  8.85$  9.04$
  Q  0.6645  6.23$  10.32$  8.85$
  Q  -1.3290  6.24$  9.46$  8.97$
  Q  0.6645  5.09$  7.16$  5.85$
  Q  0.6645  5.42$  5.86$  6.47$
  Q  -1.3290  5.45$  6.42$  5.86$
  Q  0.6645  13.93$  14.96$  21.64$
  Q  0.6645  13.52$  14.67$  20.2$
  Q  -1.3290  13.38$  14.8$  21.02$
  Q  0.6645  4.87$  8.72$  20.65$
  Q  0.6645  6.28$  8.91$  20.11$
  Q  -1.3290  5.58$  9.18$  20.42$
  Q  0.6645  18.24$  14.79$  13.05$
  Q  0.6645  18.36$  16.37$  12.72$
  Q  -1.3290  18.46$  15.63$  13.18$
  Q  0.6645  15.03$  17.48$  17.16$
  Q  0.6645  16.16$  16.55$  17.16$
  Q  -1.3290  15.42$  16.78$  16.95$
  Q  0.6645  13.36$  1.59$  4.21$
  Q  0.6645  12.77$  2.4$  5.44$
  Q  -1.3290  13.35$  1.96$  5$
  Q  0.6645  11.57$  14.06$  21.18$
  Q  0.6645  10.14$  14.68$  21.41$
  Q  -1.3290  10.74$  14.08$  21.37$
  Q  0.6645  14.25$  1.52$  7.17$
  Q  0.6645  13.62$  0.52$  8.03$
  Q  -1.3290  14.03$  1.23$  7.88$
  Q  0.6645  15.83$  19.6$  7.78$
  Q  0.6645  16.22$  18.22$  8.51$
  Q  -1.3290  16.16$  18.79$  7.86$
  Q  0.6645  2.8$  19.35$  4.99$
  Q  0.6645  3.92$  19.05$  5.98$
  Q  -1.3290  3.2$  18.89$  5.6$
  Q  0.6645  4.61$  16.78$  5.44$
  Q  0.6645  5.93$  16.3$  4.73$
  Q  -1.3290  5.24$  16.74$  4.84$
  Q  0.6645  19.78$  13.12$  4.02$
  Q  0.6645  19.98$  12.37$  5.38$
  Q  -1.3290  20.21$  12.73$  4.64$
  Q  0.6645  13.89$  17.83$  12.03$
  Q  0.6645  12.46$  17.97$  11.43$
  Q  -1.3290  13.29$  17.76$  11.44$
  Q  0.6645  16.58$  3.99$  9.08$
  Q  0.6645  15.21$  3.92$  8.72$
  Q  -1.3290  15.81$  3.98$  9.28$
  Q  0.6645  15.59$  4.14$  11.39$
  Q  0.6645  16.23$  3.89$  12.72$
  Q  -1.3290  15.63$  4.15$  12.21$
  Q  0.6645  4.61$  12.16$  0.28$
  Q  0.6645  5.08$  10.65$  0.03$
  Q  -1.3290  4.71$  11.31$  0.47$
  Q  0.6645  7.08$  1.96$  11.4$
  Q  0.6645  7.94$  3.25$  11.51$
  Q  -1.3290  7.37$  2.68$  11.72$
  Q  0.6645  14.74$  16.7$  10.12$
  Q  0.6645  15.96$  16.01$  9.42$
  Q  -1.3290  15.52$  16.63$  9.85$
  Q  0.6645  20.47$  9.16$  12.79$
  Q  0.6645  20.19$  8.83$  11.38$
  Q  -1.3290  20.68$  9$  12.02$
  Q  0.6645  10.11$  4.21$  10.66$
  Q  0.6645  10.11$  2.66$  10.27$
  Q  -1.3290  9.88$  3.48$  10.25$
  Q  0.6645  16.77$  11.53$  3.16$
  Q  0.6645  17.26$  10.15$  3.68$
  Q  -1.3290  17.12$  10.75$  3.09$
  Q  0.6645  14.63$  14.4$  1.77$
  Q  0.6645  13.27$  14.13$  2.54$
  Q  -1.3290  14.02$  13.92$  2.12$
  Q  0.6645  7.55$  10.8$  2.11$
  Q  0.6645  6.07$  11.06$  2.07$
  Q  -1.3290  6.76$  10.66$  2.35$
  Q  0.6645  10.88$  7.19$  17.11$
  Q  0.6645  10.08$  7.11$  15.78$
  Q  -1.3290  10.19$  7.01$  16.65$
  Q  0.6645  20.41$  15.72$  10.74$
  Q  0.6645  21.82$  16.24$  11.21$
  Q  -1.3290  21.25$  15.91$  10.67$
  Q  0.6645  12.55$  11.18$  20.12$
  Q  0.6645  13.48$  10.05$  20.49$
  Q  -1.3290  13.3$  10.84$  20.39$
  Q  0.6645  19.11$  13.45$  10.07$
  Q  0.6645  19.45$  14.4$  8.96$
  Q  -1.3290  19.07$  14.19$  9.66$
  Q  0.6645  11.08$  12.67$  17.38$
  Q  0.6645  11.24$  12.98$  15.9$
  Q  -1.3290  11.34$  13.1$  16.73$
  Q  0.6645  9.07$  8.69$  21.15$
  Q  0.6645  8.36$  10.02$  20.78$
  Q  -1.3290  8.59$  9.21$  20.67$
  Q  0.6645  5.84$  9.04$  15.85$
  Q  0.6645  6.75$  9.09$  17.12$
  Q  -1.3290  6.57$  9$  16.29$
  Q  0.6645  7.43$  14.26$  16.53$
  Q  0.6645  8.14$  15.44$  17.3$
  Q  -1.3290  7.72$  15.06$  16.66$
  Q  0.6645  5.5$  12.04$  13.93$
  Q  0.6645  4.93$  12.77$  15.1$
  Q  -1.3290  5.54$  12.54$  14.6$
  Q  0.6645  4.36$  4.5$  3.43$
  Q  0.6645  5.43$  5.51$  3.4$
  Q  -1.3290  4.88$  5.02$  3.05$
  Q  0.6645  4.73$  4.44$  11.27$
  Q  0.6645  6.13$  4.65$  11.03$
  Q  -1.3290  5.36$  4.92$  11.01$
  Q  0.6645  15.84$  7.47$  18.32$
  Q  0.6645  15.52$  8.88$  17.73$
  Q  -1.3290  15.6$  8.02$  17.69$
  Q  0.6645  17.74$  12.91$  6.27$
  Q  0.6645  18.33$  11.43$  5.91$
  Q  -1.3290  18.17$  12.15$  6.38$
  Q  0.6645  1.5$  12.32$  13.62$
  Q  0.6645  1.25$  13.55$  14.65$
  Q  -1.3290  1.42$  12.71$  14.4$
  Q  0.6645  4.05$  16.1$  7.67$
  Q  0.6645  2.73$  15.81$  7.22$
  Q  -1.3290  3.54$  15.8$  7.08$
  Q  0.6645  10.72$  20.95$  14.31$
  Q  0.6645  9.76$  20$  14.92$
  Q  -1.3290  10.05$  20.44$  14.31$
  Q  0.6645  5.74$  17.69$  9.18$
  Q  0.6645  5.58$  17.84$  7.59$
  Q  -1.3290  5.67$  17.43$  8.38$
  Q  0.6645  3.57$  7.19$  8.84$
  Q  0.6645  4.67$  6.65$  9.82$
  Q  -1.3290  4.24$  7.25$  9.37$
  Q  0.6645  2.92$  10.33$  5.71$
  Q  0.6645  2.86$  8.84$  5.36$
  Q  -1.3290  3.19$  9.64$  5.33$
  Q  0.6645  6.62$  11.94$  16.57$
  Q  0.6645  7.71$  11.88$  17.54$
  Q  -1.3290  7$  12.17$  17.26$
  Q  0.6645  14.78$  2.87$  4.95$
  Q  0.6645  15.64$  3.34$  3.79$
  Q  -1.3290  15.39$  3.33$  4.57$
  Q  0.6645  9.25$  15.49$  15.71$
  Q  0.6645  10.79$  15$  15.92$
  Q  -1.3290  10.14$  15.47$  15.59$
  Q  0.6645  16.94$  17.3$  11.29$
  Q  0.6645  16.82$  17.76$  12.61$
  Q  -1.3290  17.24$  17.66$  11.9$
  Q  0.6645  14.97$  12.16$  20.85$
  Q  0.6645  15.59$  13.34$  20.17$
  Q  -1.3290  15.54$  12.76$  20.75$
  Q  0.6645  7.75$  15.17$  3.45$
  Q  0.6645  8.22$  16.14$  4.43$
  Q  -1.3290  7.73$  15.53$  4.19$
  Q  0.6645  6.13$  18.61$  11.47$
  Q  0.6645  6.19$  19.85$  10.5$
  Q  -1.3290  5.94$  19.07$  10.73$
  Q  0.6645  20.36$  11.76$  11$
  Q  0.6645  19.12$  11.26$  10.29$
  Q  -1.3290  19.6$  11.84$  10.65$
  Q  0.6645  6.66$  12.19$  20.58$
  Q  0.6645  7.25$  12.06$  22.05$
  Q  -1.3290  7.26$  12.01$  21.19$
  Q  0.6645  10.5$  6.28$  3.8$
  Q  0.6645  9.16$  5.95$  3.05$
  Q  -1.3290  9.87$  5.8$  3.47$
  Q  0.6645  5.63$  13.94$  3.17$
  Q  0.6645  4.87$  15.26$  3.26$
  Q  -1.3290  5.15$  14.56$  2.87$
  Q  0.6645  17.4$  5.87$  8.75$
  Q  0.6645  18.08$  5.29$  7.58$
  Q  -1.3290  18$  5.41$  8.38$
  Q  0.6645  15.22$  19.18$  13.92$
  Q  0.6645  14.97$  17.67$  13.99$
  Q  -1.3290  15.04$  18.42$  13.6$
  Q  0.6645  6.22$  1.68$  5.39$
  Q  0.6645  7.59$  2.34$  5.19$
  Q  -1.3290  7.06$  1.72$  5.35$
  Q  0.6645  17.88$  3.76$  15.04$
  Q  0.6645  17.85$  2.86$  13.79$
  Q  -1.3290  17.69$  3.54$  14.22$
  Q  0.6645  13.76$  18.97$  8.14$
  Q  0.6645  13.44$  18.32$  6.85$
  Q  -1.3290  13.31$  18.9$  7.45$
  Q  0.6645  2.25$  16.89$  12.17$
  Q  0.6645  2.5$  16.23$  10.7$
  Q  -1.3290  2.17$  16.74$  11.33$
  Q  0.6645  2.18$  6.96$  6.48$
  Q  0.6645  1.65$  6.7$  5.05$
  Q  -1.3290  1.95$  7.19$  5.68$
  Q  0.6645  15.44$  15.9$  15.16$
  Q  0.6645  15.75$  15.11$  13.83$
  Q  -1.3290  15.35$  15.71$  14.33$
  Q  0.6645  10.49$  19.33$  12.73$
  Q  0.6645  10.6$  17.93$  12.52$
  Q  -1.3290  10.78$  18.69$  12.3$
  Q  0.6645  14.57$  12.75$  3.61$
  Q  0.6645  15.17$  11.53$  4.43$
  Q  -1.3290  15.09$  12.35$  4.17$
  Q  0.6645  19.87$  6.12$  8.74$
  Q  0.6645  20.97$  6.13$  7.7$
  Q  -1.3290  20.58$  6.41$  8.38$
  Q  0.6645  2.03$  7.96$  11.56$
  Q  0.6645  3.29$  8.33$  10.71$
  Q  -1.3290  2.8$  8.3$  11.4$
  Q  0.6645  14.96$  9.71$  2.87$
  Q  0.6645  14.14$  9.87$  1.6$
  Q  -1.3290  14.49$  9.44$  2.21$
  Q  0.6645  17.5$  14.48$  17.64$
  Q  0.6645  18.25$  15.71$  17.08$
  Q  -1.3290  17.74$  15.28$  17.59$
  Q  0.6645  11$  0.64$  7.5$
  Q  0.6645  10.51$  0.77$  8.97$
  Q  -1.3290  10.61$  0.98$  8.16$
  Q  0.6645  6.58$  17.15$  13.19$
  Q  0.6645  6.42$  18.62$  13.69$
  Q  -1.3290  6.63$  18$  13.13$
  Q  0.6645  12.52$  7.01$  21.62$
  Q  0.6645  12.43$  5.61$  22.22$
  Q  -1.3290  12.13$  6.3$  21.82$
  Q  0.6645  9.8$  10.25$  17.48$
  Q  0.6645  8.89$  9.72$  18.46$
  Q  -1.3290  9.16$  10.33$  17.99$
  Q  0.6645  14.91$  4.61$  16.44$
  Q  0.6645  13.91$  4.75$  15.4$
  Q  -1.3290  14.16$  4.67$  16.16$
  Q  0.6645  8.17$  7.29$  19.11$
  Q  0.6645  8.4$  7.09$  17.63$
  Q  -1.3290  7.94$  7.23$  18.31$
  Q  0.6645  10.85$  3.28$  15.13$
  Q  0.6645  11.8$  2.02$  15.44$
  Q  -1.3290  11.57$  2.78$  15.1$
  Q  0.6645  19.43$  15.85$  7.07$
  Q  0.6645  20.95$  15.35$  7.07$
  Q  -1.3290  20.12$  15.34$  7.24$
  Q  0.6645  6.79$  15.71$  1.67$
  Q  0.6645  6.53$  17.1$  1.06$
  Q  -1.3290  7$  16.51$  1.44$
  Q  0.6645  4.03$  7.43$  12.71$
  Q  0.6645  4.91$  6.34$  12.04$
  Q  -1.3290  4.62$  6.84$  12.67$
  Q  0.6645  6.74$  16.16$  19.68$
  Q  0.6645  8.2$  16.41$  19.96$
  Q  -1.3290  7.54$  16.27$  19.46$
  Q  0.6645  16.01$  17.53$  3.42$
  Q  0.6645  14.6$  17.15$  3.85$
  Q  -1.3290  15.25$  17.13$  3.36$
  Q  0.6645  14.55$  15.26$  17.7$
  Q  0.6645  13.27$  14.34$  17.81$
  Q  -1.3290  13.95$  14.77$  18.1$
  Q  0.6645  14.78$  7.37$  2.45$
  Q  0.6645  16.26$  6.89$  2.77$
  Q  -1.3290  15.39$  6.78$  2.7$
  Q  0.6645  3.53$  12.68$  6.73$
  Q  0.6645  4.24$  14.08$  6.43$
  Q  -1.3290  4.2$  13.22$  6.51$
  Q  0.6645  3.23$  12.49$  17.06$
  Q  0.6645  2.67$  12.4$  15.59$
  Q  -1.3290  3.23$  12.23$  16.22$
  Q  0.6645  11.31$  9.73$  3.13$
  Q  0.6645  12.28$  10.68$  2.37$
  Q  -1.3290  11.69$  10.45$  2.97$
  Q  0.6645  11.63$  19.35$  2.51$
  Q  0.6645  10.51$  19.92$  3.5$
  Q  -1.3290  10.89$  19.75$  2.77$
  Q  0.6645  20.89$  12.62$  7.26$
  Q  0.6645  20.44$  11.2$  7.52$
  Q  -1.3290  21.02$  11.8$  7.44$
  Q  0.6645  2.12$  5.68$  8.53$
  Q  0.6645  0.95$  6.58$  8.3$
  Q  -1.3290  1.75$  6.37$  8.28$
  Q  0.6645  8.22$  3.69$  8.89$
  Q  0.6645  7.76$  3.48$  7.42$
  Q  -1.3290  7.67$  3.64$  8.23$
  Q  0.6645  8.75$  13.12$  1.93$
  Q  0.6645  8.4$  14.34$  1.14$
  Q  -1.3290  8.32$  13.8$  1.76$
  Q  0.6645  17.63$  17.8$  6.58$
  Q  0.6645  17.15$  16.51$  5.79$
  Q  -1.3290  17.71$  17.06$  6.13$
  Q  0.6645  11.06$  3.1$  7.34$
  Q  0.6645  11.39$  4.56$  6.82$
  Q  -1.3290  11.35$  3.7$  6.81$
  Q  0.6645  5$  8.79$  4.18$
  Q  0.6645  6.01$  8.99$  3.04$
  Q  -1.3290  5.48$  8.57$  3.53$
  Q  0.6645  18.99$  5.66$  17.16$
  Q  0.6645  18.54$  7.01$  16.45$
  Q  -1.3290  18.85$  6.51$  17.07$
  Q  0.6645  10.04$  0.14$  11.16$
  Q  0.6645  11.36$  0.84$  11.51$
  Q  -1.3290  10.58$  0.79$  11.16$
  Q  0.6645  3.62$  10.35$  15.82$
  Q  0.6645  3.49$  8.81$  15.66$
  Q  -1.3290  3.89$  9.54$  15.69$
  Q  0.6645  9.98$  10.77$  1.77$
  Q  0.6645  9.41$  11.58$  0.56$
  Q  -1.3290  9.42$  11.24$  1.33$
  Q  0.6645  9.89$  3.58$  5.57$
  Q  0.6645  8.89$  4.38$  4.9$
  Q  -1.3290  9.09$  3.79$  5.39$
  Q  0.6645  17.12$  1.6$  6.47$
  Q  0.6645  16.21$  2.82$  6.37$
  Q  -1.3290  16.79$  2.35$  6.71$
  Q  0.6645  19.75$  6.29$  13.76$
  Q  0.6645  18.45$  5.51$  13.78$
  Q  -1.3290  19.05$  5.97$  13.43$
  Q  0.6645  3.28$  10.42$  1.59$
  Q  0.6645  2.97$  9.86$  3.02$
  Q  -1.3290  3$  9.83$  2.16$
  Q  0.6645  13.58$  14.57$  7.03$
  Q  0.6645  14.89$  15.13$  6.25$
  Q  -1.3290  14.15$  15.17$  6.74$
  Q  0.6645  12.22$  7.69$  4.59$
  Q  0.6645  10.73$  8.34$  4.8$
  Q  -1.3290  11.39$  7.96$  4.38$
  Q  0.6645  13.18$  3.87$  7.33$
  Q  0.6645  14.19$  4.55$  6.31$
  Q  -1.3290  13.92$  4.24$  7.09$
  Q  0.6645  5.92$  6.68$  13.94$
  Q  0.6645  6.92$  7.31$  15$
  Q  -1.3290  6.64$  6.78$  14.38$
  Q  0.6645  9.67$  19.37$  6.09$
  Q  0.6645  8.55$  19.64$  5.06$
  Q  -1.3290  9.34$  19.46$  5.3$
  Q  0.6645  3.69$  17.87$  13.99$
  Q  0.6645  3.04$  16.63$  14.64$
  Q  -1.3290  3.68$  17.08$  14.28$
  Q  0.6645  6.57$  20.58$  7.19$
  Q  0.6645  5.95$  19.99$  5.85$
  Q  -1.3290  5.96$  20.19$  6.7$
  Q  0.6645  18.51$  7.72$  2.32$
  Q  0.6645  17.38$  8.62$  2.08$
  Q  -1.3290  17.72$  7.89$  2.26$
  Q  0.6645  8.7$  16.63$  22.37$
  Q  0.6645  10.14$  16.91$  21.79$
  Q  -1.3290  9.38$  16.52$  21.83$
  Q  0.6645  2$  14.13$  3.36$
  Q  0.6645  3.02$  13.85$  2.4$
  Q  -1.3290  2.3$  13.72$  2.72$
  Q  0.6645  16.8$  12.57$  12.91$
  Q  0.6645  18.15$  12.63$  11.97$
  Q  -1.3290  17.64$  12.77$  12.65$
*
