! NoMOPrint PrintBasis #MINIPRINT SMALLPRINT LARGEPRINT
! ALLPOP XYZFILE
#! BP86 3-21G   TightSCF
! ENGRAD
! B3LYP NormalPNO PModel #DecontractAux
#! VerySlowConv 
 %maxcore 5000
 %scf  maxiter   500  end 

%pal
    nprocs 32
end

%basis
    NewGTO O    # New basis for oxygen
        "aug-cc-pVTZ"
    end
    NewGTO C    # New basis for carbon
        "aug-cc-pVTZ"
    end
    NewGTO H    # New basis for hydrogen
        "cc-pVTZ"
    end
end

* xyz 0   1
  C  10.09  11  11.82  #1
  H  9.58  10.33  11.08  #2
  H  9.33  11.77  12.21  #3
  C  11.33  11.65  11.14  #4
  H  11.31  12.74  11.39  #5
  H  12.25  11.24  11.54  #6
  C  11.22  11.5  9.59  #7
  H  12.06  12.04  9.11  #8
  H  10.37  12.04  9.34  #9
  C  11.15  10.08  9.08  #10
  H  11.13  9.46  9.97  #11
  H  11.97  9.87  8.38  #12
  O  9.93  9.82  8.47  #13
  H  9.84  8.83  8.46  #14
  O  10.52  10.19  12.95  #15
  H  9.75  9.67  13.19  #16
  O  11.53  13.52  6.55  #17
  H  11.76  13.5  5.58  #18
  H  11.26  12.58  6.68  #19
  O  8.61  14.43  12.11  #20
  H  8.94  14.11  12.92  #21
  H  9.11  15.23  11.88  #22
  O  13.05  8.43  12.08  #23
  H  13.71  7.81  12.4  #24
  H  12.58  8.87  12.8  #25
  O  10.8  15.64  10.66  #26
  H  11.62  15.46  10.2  #27
  H  10.89  16.58  10.72  #28
  O  10.49  6.58  6.06  #29
  H  10.02  6.8  6.88  #30
  H  11.1  7.33  5.71  #31
  O  14.85  6.41  13.02  #32
  H  15.64  6.81  13.4  #33
  H  15.04  6.39  12.03  #34
  O  13.59  13.12  13.13  #35
  H  12.93  13.74  12.74  #36
  H  14.17  12.67  12.48  #37
  O  9.69  7.03  9.01  #38
  H  8.85  6.56  9.07  #39
  H  10.31  6.62  9.59  #40
  O  14.62  11.84  11.04  #41
  H  14.46  11.04  10.52  #42
  H  14.23  12.53  10.55  #43
  O  11.09  6.86  14.84  #44
  H  10.4  7.41  14.37  #45
  H  11.83  7.4  14.67  #46
  O  14.77  9.78  6.83  #47
  H  14.57  9.1  7.5  #48
  H  14.2  9.57  6.09  #49
  O  13.15  9.02  14.78  #50
  H  12.75  9.51  15.53  #51
  H  14.03  8.75  15.16  #52
  O  12.39  8.67  5.66  #53
  H  11.97  9.53  5.46  #54
  H  12.57  8.32  4.77  #55
  O  15.94  9.73  13.2  #56
  H  16.33  10.54  12.91  #57
  H  15.01  9.96  12.93  #58
  O  7.84  11.36  7.98  #59
  H  8.51  10.78  8.36  #60
  H  7.63  11.95  8.74  #61
  O  11.53  12.79  3.62  #62
  H  11.78  11.87  3.69  #63
  H  11.17  12.92  2.72  #64
  O  8.73  6.89  3.95  #65
  H  9.28  7.02  4.75  #66
  H  8.08  7.62  4  #67
  O  10.1  18.36  10.33  #68
  H  9.26  18.56  9.84  #69
  H  10.41  19.19  10.71  #70
  O  8.86  3.89  6.71  #71
  H  9.35  4.34  6.02  #72
  H  8.55  3.04  6.35  #73
  O  11.77  15.25  13.38  #74
  H  11.67  15.57  12.48  #75
  H  11.78  15.95  13.99  #76
  O  13.06  5.18  7.17  #77
  H  12.32  5.58  6.71  #78
  H  12.73  4.75  8.01  #79
  O  11.87  6.47  10.85  #80
  H  12.14  7.34  11.29  #81
  H  11.51  5.98  11.59  #82
  O  6.43  15.78  12.71  #83
  H  6.51  16.44  12.03  #84
  H  7.08  15.2  12.34  #85
  O  8.45  13.83  6.84  #86
  H  8.03  13.02  7.08  #87
  H  9.36  13.6  6.54  #88
  O  7.19  13.1  10  #89
  H  7  12.8  10.89  #90
  H  7.95  13.68  10.13  #91
  O  12.8  14.91  8.8  #92
  H  12.56  14.26  8.09  #93
  H  13.74  14.92  9.02  #94
  O  12.96  15.2  3.73  #95
  H  12.52  14.28  3.78  #96
  H  12.84  15.38  2.8  #97
  O  8.75  7.89  13.37  #98
  H  8.26  7.39  12.69  #99
  H  7.89  8.31  13.79  #100
  O  14.83  9.36  9.99  #101
  H  14.08  8.76  10.37  #102
  H  15.64  8.94  10.35  #103
  O  11.79  17.43  8.17  #104
  H  11.09  17.71  8.86  #105
  H  12.07  16.56  8.5  #106
  O  10.54  10.9  5.78  #107
  H  10.18  10.44  6.53  #108
  H  9.86  11.1  5.17  #109
  Q  0.6645  9.34$  5.13$  16.98$
  Q  0.6645  10.8$  4.66$  17.16$
  Q  -1.3290  10$  4.75$  17.38$
  Q  0.6645  2.38$  5.78$  7.17$
  Q  0.6645  1.75$  7.13$  7.51$
  Q  -1.3290  2.24$  6.6$  7.06$
  Q  0.6645  10.94$  3.99$  13.32$
  Q  0.6645  10.72$  5.47$  13.71$
  Q  -1.3290  10.88$  4.84$  13.18$
  Q  0.6645  5.14$  15.61$  5.37$
  Q  0.6645  4.25$  16.32$  6.53$
  Q  -1.3290  4.58$  16.2$  5.74$
  Q  0.6645  5.97$  5.55$  19.81$
  Q  0.6645  6.05$  6.61$  20.8$
  Q  -1.3290  5.65$  6.13$  20.26$
  Q  0.6645  14.68$  2.37$  11.08$
  Q  0.6645  13.83$  3.57$  11.5$
  Q  -1.3290  14.53$  3.16$  11.24$
  Q  0.6645  6.17$  11.06$  13.38$
  Q  0.6645  5.13$  11.44$  14.46$
  Q  -1.3290  5.88$  11.36$  14.12$
  Q  0.6645  20.26$  12.12$  13.84$
  Q  0.6645  20.45$  12.43$  12.34$
  Q  -1.3290  20.55$  12.56$  13.16$
  Q  0.6645  7.07$  18.85$  6.41$
  Q  0.6645  7.11$  19.44$  7.83$
  Q  -1.3290  6.76$  19.04$  7.17$
  Q  0.6645  2.82$  13.35$  12.23$
  Q  0.6645  1.2$  13.63$  12.52$
  Q  -1.3290  1.92$  13.26$  12.16$
  Q  0.6645  18.05$  7.7$  16.77$
  Q  0.6645  19.67$  7.48$  16.64$
  Q  -1.3290  18.89$  7.9$  16.79$
  Q  0.6645  7.53$  19.79$  9.71$
  Q  0.6645  8.92$  20.56$  9.37$
  Q  -1.3290  8.2$  20.03$  9.24$
  Q  0.6645  7.03$  0.78$  10.45$
  Q  0.6645  7.14$  -0.16$  11.73$
  Q  -1.3290  7.19$  0.59$  11.28$
  Q  0.6645  6.23$  17.95$  10.35$
  Q  0.6645  7.16$  17.01$  9.64$
  Q  -1.3290  6.82$  17.38$  10.3$
  Q  0.6645  15.37$  9.59$  0.85$
  Q  0.6645  15.6$  10.55$  -0.39$
  Q  -1.3290  15.23$  10.26$  0.35$
  Q  0.6645  17.63$  17.53$  15.27$
  Q  0.6645  18.83$  18.33$  15$
  Q  -1.3290  18.39$  17.6$  15.06$
  Q  0.6645  8.32$  14.9$  17.32$
  Q  0.6645  7.17$  15.34$  16.49$
  Q  -1.3290  7.52$  14.91$  17.12$
  Q  0.6645  5.43$  7.2$  4.91$
  Q  0.6645  6.02$  7.83$  6.14$
  Q  -1.3290  5.62$  7.23$  5.71$
  Q  0.6645  21.14$  13.67$  9.57$
  Q  0.6645  19.79$  14.08$  10.34$
  Q  -1.3290  20.61$  13.84$  10.23$
  Q  0.6645  15.17$  12.06$  1.11$
  Q  0.6645  14.88$  12.89$  2.34$
  Q  -1.3290  15.06$  12.77$  1.53$
  Q  0.6645  3.62$  6.7$  3.53$
  Q  0.6645  4.99$  6.67$  2.69$
  Q  -1.3290  4.29$  7.03$  3.09$
  Q  0.6645  14.86$  19.23$  14.19$
  Q  0.6645  15.44$  17.93$  13.53$
  Q  -1.3290  15.38$  18.77$  13.7$
  Q  0.6645  3.23$  18.59$  15.84$
  Q  0.6645  4.75$  18.16$  16.04$
  Q  -1.3290  4.05$  18.6$  15.68$
  Q  0.6645  13.09$  6.7$  2.53$
  Q  0.6645  14.22$  7.85$  2.7$
  Q  -1.3290  13.42$  7.47$  2.79$
  Q  0.6645  10.21$  21.92$  6.25$
  Q  0.6645  8.8$  21.98$  5.7$
  Q  -1.3290  9.44$  21.61$  6.12$
  Q  0.6645  14.87$  1.48$  8.29$
  Q  0.6645  15.02$  2.99$  8.36$
  Q  -1.3290  14.99$  2.28$  7.97$
  Q  0.6645  19.48$  8.38$  8.96$
  Q  0.6645  18.71$  8.35$  10.34$
  Q  -1.3290  19.4$  8.39$  9.82$
  Q  0.6645  17.87$  18.66$  11.02$
  Q  0.6645  17.6$  18.67$  12.59$
  Q  -1.3290  18.06$  18.75$  11.88$
  Q  0.6645  18.18$  13.35$  1.52$
  Q  0.6645  16.84$  12.72$  1.9$
  Q  -1.3290  17.67$  12.84$  1.96$
  Q  0.6645  19.55$  9.43$  14.13$
  Q  0.6645  20.09$  8.85$  12.81$
  Q  -1.3290  19.98$  8.88$  13.65$
  Q  0.6645  12.06$  0.38$  9.77$
  Q  0.6645  13.2$  -0.46$  9.04$
  Q  -1.3290  12.75$  0.25$  9.25$
  Q  0.6645  5.7$  12.28$  3.91$
  Q  0.6645  5.89$  12.46$  5.51$
  Q  -1.3290  6.12$  12.39$  4.67$
  Q  0.6645  5.42$  5.14$  5.97$
  Q  0.6645  6.19$  3.89$  5.86$
  Q  -1.3290  5.5$  4.33$  5.95$
  Q  0.6645  18.9$  11.32$  15.43$
  Q  0.6645  18.28$  12.01$  14.16$
  Q  -1.3290  18.76$  11.44$  14.6$
  Q  0.6645  5.71$  16.47$  16.96$
  Q  0.6645  6.04$  17.78$  17.84$
  Q  -1.3290  5.57$  17.07$  17.58$
  Q  0.6645  7.34$  3.77$  19.23$
  Q  0.6645  8.38$  4.94$  18.91$
  Q  -1.3290  7.74$  4.54$  19.3$
  Q  0.6645  6.72$  1.36$  5.4$
  Q  0.6645  7.58$  2.36$  4.43$
  Q  -1.3290  7.29$  2$  5.18$
  Q  0.6645  18.6$  14.59$  13.14$
  Q  0.6645  17.64$  13.84$  12.47$
  Q  -1.3290  18.07$  14.51$  12.56$
  Q  0.6645  4.42$  9.57$  6.87$
  Q  0.6645  3.01$  9.44$  6.73$
  Q  -1.3290  3.66$  9.66$  7.13$
  Q  0.6645  12.87$  8.23$  21$
  Q  0.6645  14.34$  8.58$  20.63$
  Q  -1.3290  13.68$  8.08$  20.75$
  Q  0.6645  7.19$  9.46$  17.44$
  Q  0.6645  6.95$  8.04$  17.39$
  Q  -1.3290  7.44$  8.72$  17.41$
  Q  0.6645  2.67$  12.07$  14.92$
  Q  0.6645  3.48$  11.47$  15.86$
  Q  -1.3290  3.38$  11.94$  15.24$
  Q  0.6645  3.17$  10.48$  10.75$
  Q  0.6645  3.65$  10.27$  9.22$
  Q  -1.3290  3.67$  10.6$  10.02$
  Q  0.6645  13.61$  15.54$  17.35$
  Q  0.6645  12.14$  15.81$  17$
  Q  -1.3290  12.86$  15.92$  17.41$
  Q  0.6645  1.71$  6.06$  12.55$
  Q  0.6645  1.53$  7.1$  11.54$
  Q  -1.3290  1.92$  6.45$  11.87$
  Q  0.6645  17.74$  14$  17.96$
  Q  0.6645  16.8$  12.82$  18.53$
  Q  -1.3290  17.04$  13.63$  18.28$
  Q  0.6645  1.88$  13.22$  9.89$
  Q  0.6645  1.5$  14.33$  8.93$
  Q  -1.3290  1.59$  13.54$  9.18$
  Q  0.6645  14.77$  6.22$  9.35$
  Q  0.6645  13.55$  6.23$  10.28$
  Q  -1.3290  14.36$  6.33$  10.09$
  Q  0.6645  4.66$  19.31$  12.89$
  Q  0.6645  4.78$  18.18$  13.99$
  Q  -1.3290  4.92$  18.56$  13.23$
  Q  0.6645  17.13$  11.29$  4.76$
  Q  0.6645  16.2$  10.15$  5.46$
  Q  -1.3290  16.58$  10.6$  4.81$
  Q  0.6645  17$  13.61$  4.43$
  Q  0.6645  16.16$  14.66$  5.3$
  Q  -1.3290  16.5$  13.89$  5.1$
  Q  0.6645  7.65$  5.03$  7.78$
  Q  0.6645  6.39$  5.72$  8.32$
  Q  -1.3290  7.2$  5.48$  8.33$
  Q  0.6645  10.19$  17.64$  16.13$
  Q  0.6645  9.28$  17.65$  17.48$
  Q  -1.3290  9.46$  17.74$  16.63$
  Q  0.6645  7.7$  15.03$  5.33$
  Q  0.6645  6.95$  14.49$  4.11$
  Q  -1.3290  7.31$  15.07$  4.56$
  Q  0.6645  19$  14.51$  7.42$
  Q  0.6645  19.36$  13.06$  7.32$
  Q  -1.3290  19.53$  13.86$  7.28$
  Q  0.6645  11.88$  5.4$  1$
  Q  0.6645  12.79$  4.28$  1.54$
  Q  -1.3290  12.31$  4.97$  1.6$
  Q  0.6645  17.85$  7.33$  11.91$
  Q  0.6645  17.04$  8.5$  12$
  Q  -1.3290  17.51$  7.99$  11.57$
  Q  0.6645  16.53$  8.31$  15.17$
  Q  0.6645  16.01$  7.37$  16.14$
  Q  -1.3290  16.07$  8.13$  15.84$
  Q  0.6645  5.76$  3.86$  13.61$
  Q  0.6645  5.77$  3.85$  12.17$
  Q  -1.3290  6.04$  4.13$  12.89$
  Q  0.6645  3.64$  9.48$  17.49$
  Q  0.6645  2.61$  10.61$  17.75$
  Q  -1.3290  3.33$  10.29$  17.46$
  Q  0.6645  10.51$  12.03$  18.59$
  Q  0.6645  9.7$  11.63$  17.42$
  Q  -1.3290  10.06$  11.52$  18.16$
  Q  0.6645  18.75$  9.79$  7.35$
  Q  0.6645  18.74$  8.31$  6.69$
  Q  -1.3290  18.98$  8.95$  7.22$
  Q  0.6645  16.64$  11.94$  11.22$
  Q  0.6645  18.21$  11.76$  11.48$
  Q  -1.3290  17.38$  11.9$  11.64$
  Q  0.6645  15.89$  2.4$  5.9$
  Q  0.6645  17.23$  1.74$  5.47$
  Q  -1.3290  16.56$  2.28$  5.39$
  Q  0.6645  9.2$  3.62$  8.51$
  Q  0.6645  8.86$  3.77$  10.06$
  Q  -1.3290  9.23$  3.45$  9.36$
  Q  0.6645  6.44$  3.54$  10.02$
  Q  0.6645  4.91$  3.71$  10.06$
  Q  -1.3290  5.65$  3.37$  10.28$
  Q  0.6645  17.36$  3.94$  4.52$
  Q  0.6645  18.6$  4.71$  3.91$
  Q  -1.3290  17.82$  4.35$  3.92$
  Q  0.6645  12.68$  2.5$  13.86$
  Q  0.6645  11.4$  1.57$  13.96$
  Q  -1.3290  11.85$  2.3$  13.8$
  Q  0.6645  11.96$  14.54$  19.42$
  Q  0.6645  10.67$  13.97$  20.16$
  Q  -1.3290  11.23$  14.11$  19.51$
  Q  0.6645  6.56$  9.61$  11.2$
  Q  0.6645  5.52$  10.71$  10.8$
  Q  -1.3290  6.22$  10.39$  11.15$
  Q  0.6645  11.54$  10.42$  20.98$
  Q  0.6645  12.93$  10.94$  21.49$
  Q  -1.3290  12.07$  10.92$  21.45$
  Q  0.6645  9.82$  16.06$  2.41$
  Q  0.6645  8.56$  16.22$  3.32$
  Q  -1.3290  9.18$  16.49$  2.79$
  Q  0.6645  7.94$  11.64$  4.26$
  Q  0.6645  8.51$  11.75$  2.97$
  Q  -1.3290  8.47$  11.4$  3.71$
  Q  0.6645  8.37$  5.77$  14.53$
  Q  0.6645  8.44$  4.34$  14.89$
  Q  -1.3290  8.44$  5.14$  15.09$
  Q  0.6645  14.45$  15.63$  4.68$
  Q  0.6645  15.3$  16.75$  4.39$
  Q  -1.3290  15.04$  16.12$  4.87$
  Q  0.6645  2.88$  3.91$  8.07$
  Q  0.6645  3.8$  3.68$  6.72$
  Q  -1.3290  3.08$  3.62$  7.25$
  Q  0.6645  19.59$  9.61$  3.64$
  Q  0.6645  21.07$  9.25$  3.77$
  Q  -1.3290  20.28$  9.12$  3.51$
  Q  0.6645  2.9$  13.2$  5.8$
  Q  0.6645  2.27$  13.27$  4.38$
  Q  -1.3290  2.26$  13.21$  5.24$
  Q  0.6645  15.13$  11.47$  4.14$
  Q  0.6645  13.75$  11.11$  3.41$
  Q  -1.3290  14.33$  11.6$  3.82$
  Q  0.6645  11.97$  20.08$  4.48$
  Q  0.6645  12.06$  18.62$  4.91$
  Q  -1.3290  12.34$  19.36$  4.59$
  Q  0.6645  14.67$  18.21$  10.94$
  Q  0.6645  15$  19.22$  11.93$
  Q  -1.3290  14.68$  18.99$  11.19$
  Q  0.6645  8.07$  15.4$  7.55$
  Q  0.6645  7.47$  16.8$  7.33$
  Q  -1.3290  7.58$  16.06$  7.72$
  Q  0.6645  5.88$  5.34$  16.87$
  Q  0.6645  6.84$  6.28$  16.2$
  Q  -1.3290  6.12$  6.07$  16.61$
  Q  0.6645  13.32$  18.83$  7.91$
  Q  0.6645  13.23$  19.99$  6.89$
  Q  -1.3290  13.6$  19.49$  7.49$
  Q  0.6645  1.55$  5.66$  3.97$
  Q  0.6645  2.02$  6.55$  5.2$
  Q  -1.3290  1.84$  6.37$  4.37$
  Q  0.6645  5.56$  7.92$  14.28$
  Q  0.6645  6.2$  9.4$  14.56$
  Q  -1.3290  6.16$  8.51$  14.48$
  Q  0.6645  10.65$  4.58$  20.7$
  Q  0.6645  12.01$  4.84$  20.08$
  Q  -1.3290  11.4$  4.96$  20.62$
  Q  0.6645  4.13$  12.32$  7.87$
  Q  0.6645  4.34$  13.78$  7.39$
  Q  -1.3290  4.37$  12.93$  7.31$
  Q  0.6645  3.66$  17.05$  12.29$
  Q  0.6645  2.99$  16.22$  13.41$
  Q  -1.3290  3.03$  16.63$  12.68$
  Q  0.6645  0.59$  8.44$  14.07$
  Q  0.6645  1.24$  9.09$  15.3$
  Q  -1.3290  1.23$  8.67$  14.58$
  Q  0.6645  8.74$  2.31$  15.96$
  Q  0.6645  7.32$  2.17$  15.28$
  Q  -1.3290  8.17$  2.26$  15.33$
  Q  0.6645  11.04$  12.37$  15.28$
  Q  0.6645  12.44$  12.57$  14.6$
  Q  -1.3290  11.87$  12.6$  15.24$
  Q  0.6645  9.6$  6.88$  2.25$
  Q  0.6645  9.93$  5.89$  1.06$
  Q  -1.3290  9.73$  6.62$  1.44$
  Q  0.6645  14.46$  6.19$  7.25$
  Q  0.6645  15.55$  7.23$  7.02$
  Q  -1.3290  15.03$  6.75$  7.48$
  Q  0.6645  17.15$  5.26$  16.29$
  Q  0.6645  15.77$  5.03$  15.58$
  Q  -1.3290  16.41$  5.5$  15.93$
  Q  0.6645  15.9$  4.65$  10.06$
  Q  0.6645  16.53$  5.19$  8.87$
  Q  -1.3290  16.39$  4.58$  9.39$
  Q  0.6645  4.69$  3.39$  18.63$
  Q  0.6645  5.34$  3.15$  17.16$
  Q  -1.3290  5.25$  3.45$  17.98$
  Q  0.6645  10.03$  16.2$  19.6$
  Q  0.6645  10.23$  17.68$  20.01$
  Q  -1.3290  9.94$  17.02$  19.57$
  Q  0.6645  12.04$  10.57$  1.83$
  Q  0.6645  12.53$  9.32$  2.51$
  Q  -1.3290  12.33$  10.12$  2.49$
  Q  0.6645  14.32$  4.89$  13.75$
  Q  0.6645  13.48$  4.3$  14.85$
  Q  -1.3290  14.05$  4.27$  14.25$
  Q  0.6645  13.8$  21.22$  14.23$
  Q  0.6645  13.59$  20.73$  15.55$
  Q  -1.3290  13.54$  20.67$  14.75$
  Q  0.6645  5.46$  11.82$  1.42$
  Q  0.6645  6.64$  12.76$  1.71$
  Q  -1.3290  5.83$  12.51$  1.76$
  Q  0.6645  5.52$  1.14$  15.48$
  Q  0.6645  4.65$  2.38$  15.06$
  Q  -1.3290  5.34$  1.97$  15.36$
  Q  0.6645  18.69$  11.39$  8.9$
  Q  0.6645  17.64$  11.89$  7.95$
  Q  -1.3290  18.32$  11.47$  8.17$
  Q  0.6645  3.11$  14.45$  15.45$
  Q  0.6645  2.76$  16.02$  15.67$
  Q  -1.3290  3.16$  15.3$  15.36$
  Q  0.6645  15.99$  7.88$  19.33$
  Q  0.6645  17.02$  8.53$  20.3$
  Q  -1.3290  16.34$  8.51$  19.79$
  Q  0.6645  17.41$  6.43$  5.15$
  Q  0.6645  18$  6.34$  6.33$
  Q  -1.3290  17.6$  6.78$  5.84$
  Q  0.6645  6.18$  16.23$  14.35$
  Q  0.6645  5.03$  15.8$  15.3$
  Q  -1.3290  5.81$  16.07$  15.11$
  Q  0.6645  15.82$  15.66$  14.56$
  Q  0.6645  16.55$  15.76$  13.22$
  Q  -1.3290  15.94$  15.95$  13.74$
  Q  0.6645  1.78$  11.52$  12.56$
  Q  0.6645  1.79$  10.12$  13.23$
  Q  -1.3290  1.96$  10.68$  12.61$
  Q  0.6645  4.37$  16.47$  8.84$
  Q  0.6645  4.21$  18.05$  8.53$
  Q  -1.3290  4.12$  17.17$  8.42$
  Q  0.6645  15.39$  11.77$  7.35$
  Q  0.6645  16.16$  12.89$  6.7$
  Q  -1.3290  15.91$  12.44$  7.37$
  Q  0.6645  8.6$  15.61$  21.27$
  Q  0.6645  7.98$  14.43$  20.63$
  Q  -1.3290  8.61$  14.83$  20.97$
  Q  0.6645  18.08$  16.43$  9.61$
  Q  0.6645  17.96$  15.3$  10.62$
  Q  -1.3290  18$  15.64$  9.84$
  Q  0.6645  6.77$  10.3$  6.92$
  Q  0.6645  6.6$  9.81$  5.34$
  Q  -1.3290  6.5$  9.84$  6.23$
  Q  0.6645  10.63$  8.18$  21.74$
  Q  0.6645  10.78$  8.25$  20.21$
  Q  -1.3290  10.94$  8.48$  20.99$
  Q  0.6645  16.1$  10.33$  19.36$
  Q  0.6645  15.09$  11.45$  19.06$
  Q  -1.3290  15.81$  11.13$  19.38$
  Q  0.6645  11.86$  5.5$  15.77$
  Q  0.6645  12.79$  5.42$  16.94$
  Q  -1.3290  12.44$  5.1$  16.26$
  Q  0.6645  6.21$  10.44$  -0.27$
  Q  0.6645  4.86$  10.09$  -0.6$
  Q  -1.3290  5.41$  10.45$  -0.1$
  Q  0.6645  7.08$  19.26$  12.95$
  Q  0.6645  8.26$  18.77$  12$
  Q  -1.3290  7.78$  19.31$  12.44$
  Q  0.6645  14.93$  16.19$  11.99$
  Q  0.6645  15.01$  15.7$  10.46$
  Q  -1.3290  14.87$  16.23$  11.13$
  Q  0.6645  16.95$  11.04$  16.71$
  Q  0.6645  15.91$  10.17$  15.91$
  Q  -1.3290  16.24$  10.89$  16.22$
  Q  0.6645  0.91$  13.66$  16$
  Q  0.6645  0.33$  13.05$  14.58$
  Q  -1.3290  0.91$  13.25$  15.21$
  Q  0.6645  11.12$  4.37$  2.84$
  Q  0.6645  9.89$  3.45$  3.5$
  Q  -1.3290  10.68$  3.88$  3.42$
  Q  0.6645  8.54$  1.82$  17.85$
  Q  0.6645  9.67$  2.9$  17.91$
  Q  -1.3290  9.32$  2.11$  17.76$
  Q  0.6645  8.61$  13.09$  0.81$
  Q  0.6645  8.07$  11.73$  0.56$
  Q  -1.3290  8.28$  12.37$  1.07$
  Q  0.6645  12.7$  10.25$  17.84$
  Q  0.6645  11.19$  10.06$  17.84$
  Q  -1.3290  12.01$  9.8$  17.69$
  Q  0.6645  11.22$  3.5$  9.62$
  Q  0.6645  12.53$  2.57$  9.56$
  Q  -1.3290  12.07$  3.32$  9.57$
  Q  0.6645  10.11$  6.7$  18.41$
  Q  0.6645  8.92$  7.69$  18.22$
  Q  -1.3290  9.41$  7.12$  18.64$
  Q  0.6645  10.53$  14.45$  17.3$
  Q  0.6645  11.11$  14.38$  15.8$
  Q  -1.3290  10.63$  14.64$  16.48$
  Q  0.6645  9.32$  4.98$  11.63$
  Q  0.6645  7.87$  4.72$  12$
  Q  -1.3290  8.5$  5.04$  11.55$
  Q  0.6645  12.11$  0.81$  7.34$
  Q  0.6645  12.49$  1.28$  5.94$
  Q  -1.3290  12.11$  0.77$  6.51$
  Q  0.6645  15.6$  16.04$  16.67$
  Q  0.6645  15.71$  14.5$  16.93$
  Q  -1.3290  15.38$  15.22$  16.57$
  Q  0.6645  19.39$  16.02$  14.5$
  Q  0.6645  20.69$  15.12$  14.03$
  Q  -1.3290  19.88$  15.32$  14.36$
  Q  0.6645  16.05$  9.32$  3.14$
  Q  0.6645  16.55$  8.09$  2.58$
  Q  -1.3290  15.98$  8.67$  2.64$
  Q  0.6645  7.87$  11.47$  15.52$
  Q  0.6645  8.22$  13.02$  15.77$
  Q  -1.3290  8.36$  12.17$  15.75$
  Q  0.6645  9.18$  0.81$  13.84$
  Q  0.6645  9.45$  -0.49$  13.03$
  Q  -1.3290  9.66$  0.2$  13.46$
  Q  0.6645  20.41$  11.49$  10.28$
  Q  0.6645  19.6$  10.15$  10.48$
  Q  -1.3290  19.81$  10.98$  10.64$
  Q  0.6645  15.65$  13.82$  8.72$
  Q  0.6645  16.33$  15.06$  9.44$
  Q  -1.3290  15.68$  14.52$  9.23$
  Q  0.6645  15.28$  18.56$  7.24$
  Q  0.6645  15.55$  17.23$  6.78$
  Q  -1.3290  15.76$  17.96$  7.07$
  Q  0.6645  5.96$  8.84$  3.08$
  Q  0.6645  7.21$  9.66$  3.49$
  Q  -1.3290  6.67$  9.01$  3.51$
  Q  0.6645  9.02$  4.13$  1.12$
  Q  0.6645  8.63$  4.23$  -0.37$
  Q  -1.3290  9.13$  4.04$  0.29$
  Q  0.6645  7.87$  18.77$  16.71$
  Q  0.6645  7.56$  19.68$  17.87$
  Q  -1.3290  7.37$  19.24$  17.2$
  Q  0.6645  13.29$  12.25$  16.82$
  Q  0.6645  14.64$  11.69$  16.75$
  Q  -1.3290  13.98$  11.96$  17.14$
  Q  0.6645  6.31$  11.92$  16.95$
  Q  0.6645  5.28$  11.04$  17.75$
  Q  -1.3290  6.05$  11.29$  17.48$
  Q  0.6645  3.22$  5.51$  9.94$
  Q  0.6645  2.63$  4.08$  10.44$
  Q  -1.3290  3.08$  4.63$  9.95$
  Q  0.6645  2.41$  7.16$  15.17$
  Q  0.6645  3.72$  6.52$  14.89$
  Q  -1.3290  3.08$  6.72$  15.38$
  Q  0.6645  9.46$  0.22$  10.69$
  Q  0.6645  9.71$  1.14$  9.56$
  Q  -1.3290  9.82$  0.46$  10$
  Q  0.6645  -0.22$  11.16$  8.03$
  Q  0.6645  1.07$  11.64$  8.94$
  Q  -1.3290  0.37$  11.15$  8.71$
  Q  0.6645  9.43$  18.27$  5.13$
  Q  0.6645  8.81$  19.57$  5.7$
  Q  -1.3290  8.88$  18.93$  5.18$
  Q  0.6645  5.1$  13.17$  13.18$
  Q  0.6645  5.05$  14.51$  12.51$
  Q  -1.3290  4.82$  13.71$  12.63$
  Q  0.6645  11.52$  12.59$  0.66$
  Q  0.6645  12.32$  13.9$  0.93$
  Q  -1.3290  11.64$  13.37$  0.99$
  Q  0.6645  15.56$  13.45$  14.18$
  Q  0.6645  16.31$  12.45$  15.09$
  Q  -1.3290  16.23$  13.03$  14.48$
  Q  0.6645  4.21$  14.43$  10$
  Q  0.6645  5.57$  14.32$  9.34$
  Q  -1.3290  4.83$  14.64$  9.48$
  Q  0.6645  20.33$  5.52$  12.37$
  Q  0.6645  18.76$  5.13$  12.65$
  Q  -1.3290  19.49$  5.38$  12.21$
  Q  0.6645  8.45$  7.39$  20.18$
  Q  0.6645  8.35$  7.62$  21.68$
  Q  -1.3290  8.1$  7.7$  20.87$
  Q  0.6645  3.94$  6.86$  12.6$
  Q  0.6645  5.1$  5.83$  13.03$
  Q  -1.3290  4.61$  6.54$  13.03$
  Q  0.6645  3.08$  4.73$  14.76$
  Q  0.6645  3.03$  3.81$  13.63$
  Q  -1.3290  3.3$  4.06$  14.36$
  Q  0.6645  12.37$  18.79$  14.93$
  Q  0.6645  12.55$  17.71$  16$
  Q  -1.3290  12.21$  18.05$  15.32$
  Q  0.6645  18.93$  14.46$  4.95$
  Q  0.6645  19.2$  15.6$  4.13$
  Q  -1.3290  19.14$  14.83$  4.26$
  Q  0.6645  13.24$  7.25$  18.63$
  Q  0.6645  12.55$  7.6$  17.42$
  Q  -1.3290  12.81$  7.07$  17.96$
  Q  0.6645  6.18$  7.39$  11.99$
  Q  0.6645  7.24$  6.85$  11.13$
  Q  -1.3290  6.74$  7.41$  11.4$
  Q  0.6645  12.37$  19.74$  11.61$
  Q  0.6645  11.52$  20.85$  12.37$
  Q  -1.3290  11.77$  20.37$  11.71$
  Q  0.6645  4.85$  12.52$  20.17$
  Q  0.6645  3.65$  11.59$  19.97$
  Q  -1.3290  4.09$  12.3$  19.89$
  Q  0.6645  19.71$  5.05$  7.64$
  Q  0.6645  18.9$  4.03$  6.95$
  Q  -1.3290  19.25$  4.77$  7.02$
  Q  0.6645  13.19$  3.32$  5.89$
  Q  0.6645  12.4$  3.27$  4.54$
  Q  -1.3290  12.93$  3$  5.15$
  Q  0.6645  5.08$  7.59$  9.17$
  Q  0.6645  4.38$  7.16$  7.88$
  Q  -1.3290  4.71$  7.07$  8.63$
  Q  0.6645  18.14$  19.13$  8.85$
  Q  0.6645  17.02$  18.23$  8.49$
  Q  -1.3290  17.65$  18.44$  8.97$
  Q  0.6645  8.56$  5.17$  3.1$
  Q  0.6645  7.19$  4.48$  2.58$
  Q  -1.3290  8.08$  4.57$  2.74$
  Q  0.6645  6.47$  12.59$  19.04$
  Q  0.6645  7$  14.01$  18.86$
  Q  -1.3290  6.7$  13.37$  19.28$
  Q  0.6645  18.76$  9.84$  17.01$
  Q  0.6645  19.11$  11.11$  17.96$
  Q  -1.3290  18.69$  10.63$  17.34$
  Q  0.6645  18.81$  7.52$  3.08$
  Q  0.6645  17.93$  6.51$  2.21$
  Q  -1.3290  18.19$  7.27$  2.56$
  Q  0.6645  4.22$  7.22$  17.63$
  Q  0.6645  4.38$  7.18$  19.23$
  Q  -1.3290  4.13$  7.49$  18.45$
  Q  0.6645  16.55$  3.95$  12.13$
  Q  0.6645  16.43$  5.19$  13.05$
  Q  -1.3290  16.76$  4.48$  12.76$
  Q  0.6645  8.37$  10.79$  19.83$
  Q  0.6645  8.05$  9.66$  20.81$
  Q  -1.3290  8.07$  10.46$  20.57$
  Q  0.6645  19.79$  11.86$  5.22$
  Q  0.6645  19.04$  12.49$  3.9$
  Q  -1.3290  19.17$  11.95$  4.58$
  Q  0.6645  17.48$  6.49$  14.56$
  Q  0.6645  18.66$  7.42$  14.22$
  Q  -1.3290  17.94$  7.01$  14.09$
  Q  0.6645  4.96$  3.97$  2.45$
  Q  0.6645  5.21$  4.45$  3.87$
  Q  -1.3290  5.34$  4.41$  3.04$
  Q  0.6645  11.32$  17.14$  6.28$
  Q  0.6645  11.82$  16.51$  4.88$
  Q  -1.3290  11.34$  16.98$  5.42$
*
