! NoMOPrint PrintBasis #MINIPRINT SMALLPRINT LARGEPRINT
! ALLPOP XYZFILE
#! BP86 3-21G   TightSCF
! ENGRAD
! B3LYP NormalPNO PModel #DecontractAux
#! VerySlowConv 
 %maxcore 5000
 %scf  maxiter   500  end 

%pal
    nprocs 32
end

%basis
    NewGTO O    # New basis for oxygen
        "aug-cc-pVTZ"
    end
    NewGTO C    # New basis for carbon
        "aug-cc-pVTZ"
    end
    NewGTO H    # New basis for hydrogen
        "cc-pVTZ"
    end
end

* xyz 0   1
  C  9.23  11.61  11.99  #1
  H  9.96  11.7  12.79  #2
  H  8.29  11.23  12.37  #3
  C  9.88  10.72  10.96  #4
  H  9.25  9.89  10.89  #5
  H  9.99  11.24  9.99  #6
  C  11.24  10.06  11.12  #7
  H  11.24  9.45  12.04  #8
  H  12.01  10.76  11.36  #9
  C  11.75  9.21  10.01  #10
  H  11.49  9.62  8.98  #11
  H  11.35  8.21  10.13  #12
  O  13.12  9.1  10.14  #13
  H  13.48  8.42  9.5  #14
  O  8.94  12.91  11.47  #15
  H  8.6  13.56  12.12  #16
  O  15.46  9.79  11.16  #17
  H  15.95  8.92  10.96  #18
  H  14.6  9.69  10.78  #19
  O  13.22  12.79  14.13  #20
  H  12.69  13.57  13.99  #21
  H  13.15  12.28  13.29  #22
  O  16.04  9.85  7.93  #23
  H  15.66  10.05  8.8  #24
  H  16.36  8.96  7.98  #25
  O  8.84  15.19  13.39  #26
  H  8.85  16.13  13.29  #27
  H  8.31  15.01  14.21  #28
  O  13.19  12.75  11.41  #29
  H  12.66  13.61  11.45  #30
  H  14.15  13.01  11.3  #31
  O  15.16  12.19  6.07  #32
  H  15.24  11.78  6.92  #33
  H  16.02  12.24  5.69  #34
  O  11.55  14.86  14.26  #35
  H  11.88  15.47  14.9  #36
  H  10.62  15  14.13  #37
  O  15.4  9.15  5.11  #38
  H  15.53  9.35  6.07  #39
  H  15.42  8.17  5.12  #40
  O  9.55  18.01  13.14  #41
  H  9.66  18.24  12.19  #42
  H  9.47  18.82  13.68  #43
  O  12.08  15.2  11.46  #44
  H  12.86  15.76  11.24  #45
  H  12.21  15.11  12.43  #46
  O  17.06  7.73  10.51  #47
  H  18  8.03  10.35  #48
  H  17.12  6.85  10.77  #49
  O  6.88  13.06  14.53  #50
  H  6.22  13.58  15.07  #51
  H  6.79  12.15  14.88  #52
  O  12.2  12.79  8.87  #53
  H  12.48  12.75  9.79  #54
  H  11.54  13.49  8.81  #55
  O  18.02  11.93  8.5  #56
  H  18.33  12.04  9.45  #57
  H  17.54  11.14  8.36  #58
  O  10.15  8.41  7.13  #59
  H  9.77  7.97  6.34  #60
  H  9.39  8.54  7.78  #61
  O  11.8  6.37  7.61  #62
  H  11.34  7.17  7.33  #63
  H  12.75  6.51  7.62  #64
  O  15.29  13.9  15.49  #65
  H  16.12  13.98  14.95  #66
  H  14.86  13.1  15.16  #67
  O  12.22  10.23  15.11  #68
  H  11.92  11.17  14.97  #69
  H  12.95  10.1  14.43  #70
  O  10.68  7.88  14.33  #71
  H  10.87  8.73  14.74  #72
  H  10.41  7.34  15.07  #73
  O  7.07  8.8  11.57  #74
  H  6.32  8.18  11.59  #75
  H  7.75  8.33  12.08  #76
  O  9.94  14.63  9.81  #77
  H  9.56  14  10.45  #78
  H  10.8  14.96  10.22  #79
  O  6.99  16.25  10.98  #80
  H  7.48  16.36  10.16  #81
  H  7.17  15.34  11.29  #82
  O  6.1  14.04  12.13  #83
  H  6.46  13.72  12.97  #84
  H  6.2  13.27  11.54  #85
  O  5.95  11.37  10.88  #86
  H  6.36  10.69  11.42  #87
  H  5.97  11.02  9.99  #88
  O  18.26  7.46  7.34  #89
  H  18.91  7.78  7.98  #90
  H  18.52  7.94  6.54  #91
  O  13.64  6.72  12.4  #92
  H  13.34  7.63  12.68  #93
  H  14.38  7.01  11.89  #94
  O  11.12  10.48  5.57  #95
  H  10.87  9.93  6.31  #96
  H  11.38  11.3  5.94  #97
  O  15.61  14  11.12  #98
  H  16.2  14.74  11.4  #99
  H  15.72  14.05  10.12  #100
  O  14.43  9.43  13.56  #101
  H  14.99  8.85  14.13  #102
  H  14.97  9.48  12.74  #103
  O  17.4  11.95  11.96  #104
  H  16.81  11.17  11.86  #105
  H  16.85  12.64  11.63  #106
  O  14.45  6.76  8.01  #107
  H  14.84  6.65  7.09  #108
  H  15.09  6.46  8.67  #109
  O  8.01  7.93  8.89  #110
  H  7.61  8.45  9.61  #111
  H  7.26  7.52  8.51  #112
  Q  0.6645  8.12$  7.03$  19.29$
  Q  0.6645  6.97$  6.2$  18.64$
  Q  -1.3290  7.51$  6.83$  18.69$
  Q  0.6645  14.61$  5.89$  4.99$
  Q  0.6645  16.08$  5.67$  5.09$
  Q  -1.3290  15.4$  6.07$  5.24$
  Q  0.6645  7.74$  9.92$  6.18$
  Q  0.6645  8.64$  11.03$  6$
  Q  -1.3290  8.13$  10.61$  6.44$
  Q  0.6645  11.6$  17.61$  13.68$
  Q  0.6645  13.14$  17.54$  13.78$
  Q  -1.3290  12.41$  17.91$  13.61$
  Q  0.6645  14.31$  6.71$  -0.2$
  Q  0.6645  14.11$  7.79$  0.78$
  Q  -1.3290  14.55$  7.34$  0.27$
  Q  0.6645  6.7$  2.27$  8.56$
  Q  0.6645  5.45$  3.05$  9.08$
  Q  -1.3290  6.17$  2.91$  8.64$
  Q  0.6645  13.97$  17.98$  9.82$
  Q  0.6645  13.64$  18.24$  11.33$
  Q  -1.3290  14.02$  17.85$  10.67$
  Q  0.6645  6.84$  21.94$  16.46$
  Q  0.6645  5.75$  20.74$  16.38$
  Q  -1.3290  6.19$  21.43$  16.69$
  Q  0.6645  9.24$  19.57$  15.61$
  Q  0.6645  8.82$  20.98$  15.13$
  Q  -1.3290  9.12$  20.19$  15.05$
  Q  0.6645  19.38$  16.73$  10.89$
  Q  0.6645  18.99$  15.72$  11.97$
  Q  -1.3290  18.87$  16.14$  11.26$
  Q  0.6645  1.25$  6.69$  7.1$
  Q  0.6645  -0.22$  6.64$  7.6$
  Q  -1.3290  0.42$  6.95$  7.14$
  Q  0.6645  21.63$  6.41$  10.32$
  Q  0.6645  20.78$  7.54$  9.83$
  Q  -1.3290  21.02$  6.76$  9.87$
  Q  0.6645  15.03$  15.89$  6.03$
  Q  0.6645  15.81$  16$  7.38$
  Q  -1.3290  15.45$  16.27$  6.65$
  Q  0.6645  8.45$  6.34$  9.85$
  Q  0.6645  9.37$  5.54$  10.89$
  Q  -1.3290  8.7$  5.67$  10.34$
  Q  0.6645  3.76$  5.33$  14.03$
  Q  0.6645  3.29$  6.78$  13.88$
  Q  -1.3290  3.23$  5.99$  14.09$
  Q  0.6645  18.38$  14.26$  6.31$
  Q  0.6645  19.01$  15.62$  6.5$
  Q  -1.3290  18.8$  14.86$  6.75$
  Q  0.6645  16.88$  8.49$  2.04$
  Q  0.6645  16$  9.24$  3.07$
  Q  -1.3290  16.52$  9.15$  2.42$
  Q  0.6645  16.99$  14.77$  18.65$
  Q  0.6645  16.17$  14.15$  17.51$
  Q  -1.3290  16.85$  14.3$  17.97$
  Q  0.6645  6.41$  4.73$  5.59$
  Q  0.6645  6.27$  3.37$  4.88$
  Q  -1.3290  6.17$  4.19$  4.97$
  Q  0.6645  8.61$  1.08$  10.05$
  Q  0.6645  7.4$  0.22$  9.86$
  Q  -1.3290  7.98$  0.78$  9.62$
  Q  0.6645  7.54$  4.24$  11.45$
  Q  0.6645  6.23$  3.36$  11.69$
  Q  -1.3290  6.89$  3.87$  11.9$
  Q  0.6645  19.49$  10.05$  13.16$
  Q  0.6645  19.23$  8.68$  13.94$
  Q  -1.3290  19.47$  9.54$  13.84$
  Q  0.6645  11.36$  14.11$  5.7$
  Q  0.6645  9.96$  14.5$  5.64$
  Q  -1.3290  10.77$  14.66$  5.62$
  Q  0.6645  9.82$  14.24$  17.92$
  Q  0.6645  9$  14.97$  16.87$
  Q  -1.3290  9.57$  14.43$  17.15$
  Q  0.6645  7.78$  16.59$  17.48$
  Q  0.6645  6.85$  16.23$  16.37$
  Q  -1.3290  7.59$  16.39$  16.7$
  Q  0.6645  16.44$  7.48$  15.98$
  Q  0.6645  16.59$  8.92$  15.46$
  Q  -1.3290  16.18$  8.27$  15.71$
  Q  0.6645  10.62$  17.03$  10.01$
  Q  0.6645  11.24$  18.2$  10.62$
  Q  -1.3290  10.59$  17.78$  10.35$
  Q  0.6645  16.67$  7.28$  17.95$
  Q  0.6645  16.37$  5.72$  17.82$
  Q  -1.3290  16.75$  6.44$  17.62$
  Q  0.6645  12.95$  8.4$  19.11$
  Q  0.6645  12.53$  8.7$  20.5$
  Q  -1.3290  12.6$  8.21$  19.84$
  Q  0.6645  11.77$  4.12$  3.49$
  Q  0.6645  11.61$  2.7$  2.94$
  Q  -1.3290  12.05$  3.4$  3.16$
  Q  0.6645  13.33$  10.9$  20.39$
  Q  0.6645  13.64$  10.52$  21.84$
  Q  -1.3290  13.77$  10.5$  21.02$
  Q  0.6645  17.66$  6.77$  12.88$
  Q  0.6645  18.79$  6.55$  13.83$
  Q  -1.3290  18.27$  7.01$  13.43$
  Q  0.6645  6.54$  10.43$  7.97$
  Q  0.6645  5.39$  11.28$  7.43$
  Q  -1.3290  5.76$  10.76$  7.98$
  Q  0.6645  17.55$  0.87$  11.55$
  Q  0.6645  17.72$  0.44$  12.99$
  Q  -1.3290  17.98$  0.71$  12.26$
  Q  0.6645  6.57$  18.3$  19.03$
  Q  0.6645  5.78$  18.8$  17.64$
  Q  -1.3290  6.16$  18.85$  18.45$
  Q  0.6645  15.98$  9.32$  19$
  Q  0.6645  15.38$  8.41$  20.01$
  Q  -1.3290  15.85$  8.59$  19.33$
  Q  0.6645  17.59$  15.67$  9.5$
  Q  0.6645  17.49$  14.87$  8.21$
  Q  -1.3290  17.19$  15.24$  8.89$
  Q  0.6645  2.84$  15.17$  13.83$
  Q  0.6645  2.16$  16.3$  14.7$
  Q  -1.3290  2.71$  15.68$  14.5$
  Q  0.6645  10.57$  0.1$  11.69$
  Q  0.6645  10.66$  1.51$  11.36$
  Q  -1.3290  10.23$  0.81$  11.42$
  Q  0.6645  11.15$  11.26$  20.52$
  Q  0.6645  11.19$  10.8$  19.11$
  Q  -1.3290  11.42$  11.31$  19.74$
  Q  0.6645  0.56$  10.08$  8.33$
  Q  0.6645  0.3$  8.74$  7.5$
  Q  -1.3290  0.14$  9.55$  7.78$
  Q  0.6645  12.27$  16.94$  7.78$
  Q  0.6645  11.9$  15.58$  7.2$
  Q  -1.3290  11.83$  16.18$  7.76$
  Q  0.6645  7.93$  13.24$  6.86$
  Q  0.6645  7.46$  13.74$  5.4$
  Q  -1.3290  8.02$  13.53$  6.01$
  Q  0.6645  13.67$  19.02$  7.72$
  Q  0.6645  14.37$  17.68$  7.38$
  Q  -1.3290  13.8$  18.18$  7.76$
  Q  0.6645  16.38$  4.96$  12.47$
  Q  0.6645  17.45$  4.66$  11.37$
  Q  -1.3290  16.77$  5.03$  11.73$
  Q  0.6645  11.24$  22.29$  8.58$
  Q  0.6645  9.87$  21.57$  8.84$
  Q  -1.3290  10.67$  21.64$  8.55$
  Q  0.6645  6.71$  16.12$  4.97$
  Q  0.6645  7.26$  15.89$  3.62$
  Q  -1.3290  7.34$  15.97$  4.46$
  Q  0.6645  5.31$  14.34$  2.94$
  Q  0.6645  3.85$  14.53$  3.58$
  Q  -1.3290  4.59$  14.14$  3.42$
  Q  0.6645  16.1$  4.57$  14.53$
  Q  0.6645  14.79$  5.42$  14.35$
  Q  -1.3290  15.39$  4.86$  14.16$
  Q  0.6645  0.21$  16.19$  11.02$
  Q  0.6645  -0.41$  14.92$  10.95$
  Q  -1.3290  0.13$  15.39$  11.25$
  Q  0.6645  4.09$  21.56$  11.78$
  Q  0.6645  5.16$  21.19$  12.83$
  Q  -1.3290  4.43$  21.47$  12.56$
  Q  0.6645  5.03$  12.94$  5.16$
  Q  0.6645  4.89$  13.25$  6.65$
  Q  -1.3290  4.84$  12.75$  5.99$
  Q  0.6645  12.17$  10.25$  4.14$
  Q  0.6645  13.65$  9.88$  4.11$
  Q  -1.3290  12.88$  9.94$  3.78$
  Q  0.6645  10.9$  3.07$  16.98$
  Q  0.6645  9.47$  3.07$  17.55$
  Q  -1.3290  10.07$  2.98$  16.95$
  Q  0.6645  4.74$  17.14$  6.19$
  Q  0.6645  5.19$  16.21$  7.31$
  Q  -1.3290  5.32$  16.77$  6.73$
  Q  0.6645  12.76$  13.98$  2.11$
  Q  0.6645  11.9$  13.49$  3.28$
  Q  -1.3290  12.61$  13.65$  2.87$
  Q  0.6645  19.27$  3.64$  11.02$
  Q  0.6645  18.67$  2.62$  12.15$
  Q  -1.3290  18.97$  3.38$  11.82$
  Q  0.6645  -0.23$  9.74$  16.2$
  Q  0.6645  -0.61$  9.54$  14.78$
  Q  -1.3290  -0.06$  9.58$  15.4$
  Q  0.6645  14.26$  17.27$  18.18$
  Q  0.6645  14.66$  17.83$  16.79$
  Q  -1.3290  14.15$  17.7$  17.45$
  Q  0.6645  5.42$  18.64$  7.7$
  Q  0.6645  5.71$  19.81$  8.71$
  Q  -1.3290  5.28$  19.38$  8.12$
  Q  0.6645  3.1$  12.52$  11.14$
  Q  0.6645  4.15$  11.49$  10.67$
  Q  -1.3290  3.4$  11.78$  10.88$
  Q  0.6645  10.64$  8.77$  17.14$
  Q  0.6645  10.4$  10.25$  16.95$
  Q  -1.3290  10.66$  9.57$  17.38$
  Q  0.6645  15.94$  3.31$  18.39$
  Q  0.6645  14.56$  3.93$  17.83$
  Q  -1.3290  15.34$  3.93$  18.21$
  Q  0.6645  3.42$  14.49$  11.64$
  Q  0.6645  1.86$  14.33$  11.63$
  Q  -1.3290  2.68$  14.14$  11.84$
  Q  0.6645  7.11$  4.32$  7.57$
  Q  0.6645  8.32$  5.13$  7.21$
  Q  -1.3290  7.53$  4.96$  7.23$
  Q  0.6645  10.27$  6.48$  17.44$
  Q  0.6645  9.01$  7.35$  17.11$
  Q  -1.3290  9.8$  7.08$  17.01$
  Q  0.6645  19.34$  11.99$  6.89$
  Q  0.6645  19.26$  10.87$  5.68$
  Q  -1.3290  19.51$  11.62$  6.11$
  Q  0.6645  13.18$  19.63$  14.89$
  Q  0.6645  13.51$  19.43$  16.3$
  Q  -1.3290  13.49$  19.87$  15.61$
  Q  0.6645  11.87$  3.85$  14.32$
  Q  0.6645  10.35$  3.77$  14.75$
  Q  -1.3290  11.04$  4.11$  14.38$
  Q  0.6645  11.9$  7.5$  1.81$
  Q  0.6645  12.68$  8.23$  2.81$
  Q  -1.3290  12.51$  7.59$  2.32$
  Q  0.6645  6.34$  3.2$  16.59$
  Q  0.6645  7.42$  3.78$  17.51$
  Q  -1.3290  6.89$  3.79$  16.84$
  Q  0.6645  8.25$  2.56$  6.01$
  Q  0.6645  9.74$  2.88$  6.4$
  Q  -1.3290  9.07$  2.76$  5.88$
  Q  0.6645  6.13$  9.13$  4.2$
  Q  0.6645  5.71$  8.35$  5.57$
  Q  -1.3290  6.22$  8.6$  4.89$
  Q  0.6645  13.66$  2.14$  14.62$
  Q  0.6645  14.16$  3.45$  14.1$
  Q  -1.3290  13.59$  2.81$  14.17$
  Q  0.6645  2.23$  18.47$  9.22$
  Q  0.6645  3.58$  19.2$  9.12$
  Q  -1.3290  2.86$  18.98$  9.5$
  Q  0.6645  16.18$  1.77$  9.83$
  Q  0.6645  16.56$  0.35$  9.38$
  Q  -1.3290  16.46$  0.99$  9.94$
  Q  0.6645  9.51$  7.04$  13.14$
  Q  0.6645  8.18$  6.64$  13.77$
  Q  -1.3290  8.69$  6.9$  13.16$
  Q  0.6645  1.65$  10.66$  15.66$
  Q  0.6645  2.97$  11.57$  15.36$
  Q  -1.3290  2.3$  11.23$  15.85$
  Q  0.6645  14.08$  3.88$  1.93$
  Q  0.6645  15.36$  4.74$  1.7$
  Q  -1.3290  14.91$  4.06$  1.95$
  Q  0.6645  11.92$  5.61$  11.75$
  Q  0.6645  10.87$  4.86$  12.48$
  Q  -1.3290  11.22$  5.17$  11.8$
  Q  0.6645  3.88$  9.73$  13.88$
  Q  0.6645  3.33$  8.95$  15.01$
  Q  -1.3290  3.43$  9.14$  14.2$
  Q  0.6645  19.43$  11.53$  11.51$
  Q  0.6645  20.82$  10.71$  11.48$
  Q  -1.3290  19.96$  10.83$  11.44$
  Q  0.6645  6.04$  5.73$  10.96$
  Q  0.6645  5.83$  6.62$  9.7$
  Q  -1.3290  5.74$  6.41$  10.52$
  Q  0.6645  6.39$  16.97$  12.8$
  Q  0.6645  5.04$  17.56$  13.27$
  Q  -1.3290  5.89$  17.54$  13.2$
  Q  0.6645  7.54$  20.74$  13.54$
  Q  0.6645  6.69$  19.32$  13.18$
  Q  -1.3290  6.95$  20.19$  13.17$
  Q  0.6645  2.68$  12.82$  6.61$
  Q  0.6645  1.41$  12.67$  5.69$
  Q  -1.3290  1.87$  12.69$  6.45$
  Q  0.6645  2.99$  10.64$  17.88$
  Q  0.6645  2.89$  9.41$  18.75$
  Q  -1.3290  3.27$  10.03$  18.41$
  Q  0.6645  4.95$  14.75$  16.6$
  Q  0.6645  4.58$  15.11$  15.16$
  Q  -1.3290  5.12$  14.89$  15.78$
  Q  0.6645  9.08$  18.61$  9.39$
  Q  0.6645  8.55$  18.6$  7.98$
  Q  -1.3290  8.49$  18.81$  8.8$
  Q  0.6645  12.02$  6.17$  5.21$
  Q  0.6645  12.67$  6.23$  3.85$
  Q  -1.3290  12.54$  5.92$  4.61$
  Q  0.6645  6.39$  7.12$  3.39$
  Q  0.6645  6.74$  5.69$  3.53$
  Q  -1.3290  6.58$  6.39$  3.09$
  Q  0.6645  5.04$  16.06$  10.94$
  Q  0.6645  3.5$  16.22$  10.86$
  Q  -1.3290  4.25$  15.87$  10.64$
  Q  0.6645  17.53$  9.23$  4.78$
  Q  0.6645  18.94$  8.84$  4.32$
  Q  -1.3290  18.36$  9.17$  4.83$
  Q  0.6645  8.9$  7.08$  0.73$
  Q  0.6645  7.82$  6.41$  1.71$
  Q  -1.3290  8.19$  6.63$  0.94$
  Q  0.6645  14.93$  16.2$  13.29$
  Q  0.6645  14.68$  15.6$  14.65$
  Q  -1.3290  14.48$  16.08$  14.01$
  Q  0.6645  8.88$  17.74$  16.86$
  Q  0.6645  9.17$  18.96$  17.6$
  Q  -1.3290  9.34$  18.39$  17.04$
  Q  0.6645  6.8$  11.36$  16.8$
  Q  0.6645  6.37$  9.93$  16.26$
  Q  -1.3290  6.64$  10.74$  16.19$
  Q  0.6645  12.64$  16.85$  16.76$
  Q  0.6645  11.15$  16.9$  16.67$
  Q  -1.3290  11.9$  16.59$  16.5$
  Q  0.6645  12.35$  2.31$  9.17$
  Q  0.6645  12.8$  2.09$  7.76$
  Q  -1.3290  12.55$  1.86$  8.51$
  Q  0.6645  5.73$  18.51$  15.28$
  Q  0.6645  4.52$  19.41$  15.32$
  Q  -1.3290  5.17$  18.99$  15.64$
  Q  0.6645  12.83$  12.05$  1.32$
  Q  0.6645  12.9$  10.71$  2.08$
  Q  -1.3290  12.76$  11.21$  1.4$
  Q  0.6645  13.09$  2.68$  4.58$
  Q  0.6645  13.24$  1.25$  5.19$
  Q  -1.3290  13.16$  2.11$  5.22$
  Q  0.6645  16.6$  10.98$  17.02$
  Q  0.6645  15.22$  11.35$  17.74$
  Q  -1.3290  16.04$  11.1$  17.68$
  Q  0.6645  17.07$  17.47$  16.96$
  Q  0.6645  16.8$  16.14$  16.15$
  Q  -1.3290  16.66$  16.96$  16.4$
  Q  0.6645  19.04$  4.78$  3.91$
  Q  0.6645  20.06$  4.92$  2.73$
  Q  -1.3290  19.76$  4.65$  3.49$
  Q  0.6645  2.18$  17.48$  12.79$
  Q  0.6645  2.9$  18.17$  11.55$
  Q  -1.3290  2.62$  17.5$  12.04$
  Q  0.6645  3.7$  9.75$  8.59$
  Q  0.6645  2.68$  8.74$  8.91$
  Q  -1.3290  3.02$  9.31$  8.42$
  Q  0.6645  14.05$  21.65$  13.04$
  Q  0.6645  14.91$  21.76$  11.73$
  Q  -1.3290  14.34$  21.44$  12.24$
  Q  0.6645  16.07$  4.22$  9.9$
  Q  0.6645  17.1$  4.09$  8.86$
  Q  -1.3290  16.38$  3.91$  9.2$
  Q  0.6645  8.07$  15.92$  7.59$
  Q  0.6645  8.55$  15.31$  8.89$
  Q  -1.3290  7.99$  15.5$  8.32$
  Q  0.6645  9.36$  12.64$  16$
  Q  0.6645  8.72$  11.19$  15.9$
  Q  -1.3290  9.32$  11.78$  15.93$
  Q  0.6645  10.99$  10.77$  0.88$
  Q  0.6645  9.5$  10.72$  0.89$
  Q  -1.3290  10.24$  10.76$  0.53$
  Q  0.6645  9.08$  9.55$  3.22$
  Q  0.6645  7.75$  10.25$  2.77$
  Q  -1.3290  8.57$  10.11$  2.82$
  Q  0.6645  18.49$  3.92$  15.31$
  Q  0.6645  17.28$  3.4$  16.22$
  Q  -1.3290  17.65$  3.69$  15.51$
  Q  0.6645  10.94$  13.29$  19.56$
  Q  0.6645  11.5$  14.35$  18.68$
  Q  -1.3290  10.99$  14.05$  19.3$
  Q  0.6645  1.26$  4.73$  11.97$
  Q  0.6645  1.68$  5.54$  10.67$
  Q  -1.3290  1.21$  5$  11.14$
  Q  0.6645  3.69$  9.65$  5.14$
  Q  0.6645  3.45$  8.75$  6.39$
  Q  -1.3290  3.55$  8.92$  5.55$
  Q  0.6645  5.22$  12.94$  18.66$
  Q  0.6645  6$  11.53$  19.14$
  Q  -1.3290  5.87$  12.34$  18.81$
  Q  0.6645  6.65$  20.02$  11.05$
  Q  0.6645  7.39$  19.85$  9.82$
  Q  -1.3290  6.8$  20.23$  10.31$
  Q  0.6645  21.03$  12.85$  9.86$
  Q  0.6645  19.88$  13.6$  9.22$
  Q  -1.3290  20.29$  13.24$  9.85$
  Q  0.6645  4.1$  15.13$  19.17$
  Q  0.6645  3.15$  14.23$  18.29$
  Q  -1.3290  3.89$  14.56$  18.53$
  Q  0.6645  11.9$  20.48$  13.3$
  Q  0.6645  11.01$  20.84$  14.47$
  Q  -1.3290  11.58$  21.01$  13.87$
  Q  0.6645  11.05$  6.16$  0.48$
  Q  0.6645  10.7$  7.56$  -0.32$
  Q  -1.3290  10.83$  7.01$  0.36$
  Q  0.6645  5.75$  9.14$  1.96$
  Q  0.6645  4.85$  10.21$  2.76$
  Q  -1.3290  5.57$  9.75$  2.55$
  Q  0.6645  4.63$  6.78$  7.35$
  Q  0.6645  6.1$  6.36$  7.08$
  Q  -1.3290  5.47$  6.85$  7.38$
  Q  0.6645  13.55$  15.06$  3.81$
  Q  0.6645  12.99$  16.22$  4.46$
  Q  -1.3290  13.61$  15.72$  4.27$
  Q  0.6645  2.25$  14.38$  16.05$
  Q  0.6645  1.65$  12.91$  16.32$
  Q  -1.3290  1.75$  13.78$  16.43$
  Q  0.6645  17.48$  13.59$  3.99$
  Q  0.6645  18.27$  12.55$  4.89$
  Q  -1.3290  17.62$  13.09$  4.65$
  Q  0.6645  17.01$  4.94$  3.04$
  Q  0.6645  16.72$  3.77$  3.96$
  Q  -1.3290  17.05$  4.51$  3.79$
  Q  0.6645  9.42$  4.33$  4.36$
  Q  0.6645  9.24$  4.33$  2.86$
  Q  -1.3290  9.46$  4.67$  3.57$
  Q  0.6645  8.77$  9.14$  20.17$
  Q  0.6645  10.1$  8.65$  19.34$
  Q  -1.3290  9.49$  8.65$  19.97$
  Q  0.6645  17.68$  12.96$  13.52$
  Q  0.6645  18.74$  13.85$  14.19$
  Q  -1.3290  17.96$  13.52$  14.09$
  Q  0.6645  10.75$  4.9$  7.84$
  Q  0.6645  9.61$  4.62$  8.82$
  Q  -1.3290  10.03$  4.53$  8.09$
  Q  0.6645  14.06$  15.31$  19.3$
  Q  0.6645  14.31$  16.06$  20.6$
  Q  -1.3290  14.4$  15.91$  19.8$
  Q  0.6645  15.49$  17.27$  11.5$
  Q  0.6645  16.92$  16.58$  11.7$
  Q  -1.3290  16.16$  16.91$  11.94$
  Q  0.6645  12.15$  4.47$  18.02$
  Q  0.6645  12.77$  4.63$  16.63$
  Q  -1.3290  12.64$  4.22$  17.38$
  Q  0.6645  12.93$  20.44$  11.39$
  Q  0.6645  11.98$  20.47$  10.31$
  Q  -1.3290  12.26$  20.14$  11$
  Q  0.6645  2.29$  7.35$  10.92$
  Q  0.6645  3.63$  6.66$  10.46$
  Q  -1.3290  2.84$  6.94$  10.37$
  Q  0.6645  1.4$  8.58$  12.53$
  Q  0.6645  0.75$  7.26$  12.71$
  Q  -1.3290  1.11$  7.84$  12.26$
  Q  0.6645  9.46$  11.84$  3.07$
  Q  0.6645  9.38$  12.96$  4.12$
  Q  -1.3290  9.63$  12.58$  3.4$
  Q  0.6645  7.54$  2.24$  12.86$
  Q  0.6645  8.54$  1.07$  12.49$
  Q  -1.3290  7.99$  1.52$  12.98$
  Q  0.6645  8.07$  16.37$  20.27$
  Q  0.6645  6.58$  16.42$  19.97$
  Q  -1.3290  7.4$  16.61$  19.82$
  Q  0.6645  15.67$  21.23$  6.18$
  Q  0.6645  16.15$  22.52$  6.64$
  Q  -1.3290  16.14$  21.68$  6.64$
  Q  0.6645  14.67$  21.1$  8.15$
  Q  0.6645  13.37$  21.71$  8.42$
  Q  -1.3290  13.82$  21.1$  8.15$
  Q  0.6645  2.95$  4.82$  6.82$
  Q  0.6645  3.13$  5.82$  5.68$
  Q  -1.3290  2.89$  5.58$  6.43$
  Q  0.6645  13.16$  12.63$  5.95$
  Q  0.6645  12.38$  12.82$  7.17$
  Q  -1.3290  12.46$  12.75$  6.33$
  Q  0.6645  20.15$  9.31$  8.6$
  Q  0.6645  19.65$  9.59$  9.99$
  Q  -1.3290  19.69$  9.15$  9.28$
  Q  0.6645  6.08$  14.76$  8.43$
  Q  0.6645  4.65$  14.48$  8.97$
  Q  -1.3290  5.3$  14.41$  8.46$
  Q  0.6645  8.32$  7.85$  4.49$
  Q  0.6645  9.29$  6.74$  3.94$
  Q  -1.3290  9.06$  7.52$  4.21$
  Q  0.6645  14.84$  2.64$  5.88$
  Q  0.6645  15.94$  3.13$  6.96$
  Q  -1.3290  15.63$  2.67$  6.28$
  Q  0.6645  0.86$  10.77$  13.22$
  Q  0.6645  1.46$  11.06$  11.87$
  Q  -1.3290  0.86$  10.78$  12.39$
  Q  0.6645  12.98$  9.26$  16.56$
  Q  0.6645  14.33$  8.54$  16.88$
  Q  -1.3290  13.5$  8.7$  16.94$
  Q  0.6645  18.21$  10.55$  15.03$
  Q  0.6645  17.34$  11.82$  15.26$
  Q  -1.3290  17.57$  11.01$  15.37$
  Q  0.6645  6.3$  8.34$  17.99$
  Q  0.6645  4.91$  9.22$  17.81$
  Q  -1.3290  5.63$  8.73$  17.58$
  Q  0.6645  10.45$  16.25$  4.41$
  Q  0.6645  9.81$  16.96$  3.15$
  Q  -1.3290  10.43$  16.78$  3.73$
  Q  0.6645  1.76$  11.92$  9.69$
  Q  0.6645  1.35$  12.04$  8.25$
  Q  -1.3290  1.2$  11.98$  9.06$
  Q  0.6645  5.04$  12.09$  13.98$
  Q  0.6645  4$  12.26$  12.93$
  Q  -1.3290  4.26$  12.09$  13.7$
  Q  0.6645  7.21$  12.94$  20.49$
  Q  0.6645  8$  13.12$  21.84$
  Q  -1.3290  7.38$  12.81$  21.32$
  Q  0.6645  10.43$  20.44$  6.79$
  Q  0.6645  9.79$  19.24$  6.18$
  Q  -1.3290  10.12$  19.99$  6.13$
  Q  0.6645  7.48$  10.89$  20.49$
  Q  0.6645  6.58$  9.74$  20.52$
  Q  -1.3290  7.19$  10.2$  20.19$
  Q  0.6645  4.39$  7$  17.33$
  Q  0.6645  4.78$  6.06$  16.38$
  Q  -1.3290  4.42$  6.26$  17.05$
  Q  0.6645  6.62$  5.3$  13.66$
  Q  0.6645  6.58$  5.28$  15.17$
  Q  -1.3290  6.41$  5.58$  14.44$
  Q  0.6645  10.23$  17.22$  20.76$
  Q  0.6645  10.06$  15.67$  20.58$
  Q  -1.3290  9.93$  16.45$  20.92$
  Q  0.6645  3.62$  2.37$  10.51$
  Q  0.6645  3.98$  3.22$  11.83$
  Q  -1.3290  4.08$  2.9$  11.01$
  Q  0.6645  12.73$  14.92$  17.07$
  Q  0.6645  13.32$  13.55$  17.53$
  Q  -1.3290  13.13$  14.36$  17.61$
  Q  0.6645  9.9$  16.83$  7.11$
  Q  0.6645  9.02$  16.93$  5.8$
  Q  -1.3290  9.33$  17.18$  6.57$
  Q  0.6645  20.69$  5.41$  14.5$
  Q  0.6645  19.97$  4.3$  13.66$
  Q  -1.3290  20.06$  4.85$  14.29$
  Q  0.6645  10.71$  5.35$  19.93$
  Q  0.6645  11.89$  6.34$  19.56$
  Q  -1.3290  11.3$  5.74$  19.39$
  Q  0.6645  13.21$  11.37$  16.64$
  Q  0.6645  12.8$  11.56$  18.19$
  Q  -1.3290  13.24$  11.71$  17.45$
  Q  0.6645  9.87$  15.03$  0.95$
  Q  0.6645  9.62$  13.63$  1.7$
  Q  -1.3290  9.44$  14.32$  1.13$
  Q  0.6645  13.18$  6.8$  16.1$
  Q  0.6645  12.41$  6.19$  14.98$
  Q  -1.3290  13.01$  6.22$  15.52$
  Q  0.6645  12.61$  2.79$  11.7$
  Q  0.6645  11.47$  3.39$  10.93$
  Q  -1.3290  12.01$  2.79$  11.13$
  Q  0.6645  20.03$  4.88$  9.37$
  Q  0.6645  20.26$  3.54$  8.58$
  Q  -1.3290  19.89$  4.07$  9.13$
*
