! NoMOPrint PrintBasis #MINIPRINT SMALLPRINT LARGEPRINT
! ALLPOP XYZFILE
#! BP86 3-21G   TightSCF
! ENGRAD
! B3LYP NormalPNO PModel #DecontractAux
#! VerySlowConv 
 %maxcore 5000
 %scf  maxiter   500  end 

%pal
    nprocs 32
end

%basis
    NewGTO O    # New basis for oxygen
        "aug-cc-pVTZ"
    end
    NewGTO C    # New basis for carbon
        "aug-cc-pVTZ"
    end
    NewGTO H    # New basis for hydrogen
        "cc-pVTZ"
    end
end

* xyz 0   1
  C  12.92  10.38  10.73  #1
  H  13.71  9.77  10.99  #2
  H  13.29  11.39  10.52  #3
  C  12  10.46  11.99  #4
  H  11.55  9.43  12.1  #5
  H  12.64  10.62  12.85  #6
  C  10.89  11.49  11.97  #7
  H  11.21  12.45  11.59  #8
  H  10.52  11.66  12.96  #9
  C  9.75  11.06  11.04  #10
  H  9.28  10.08  11.36  #11
  H  10.13  11.06  10.02  #12
  O  8.65  12.04  11.16  #13
  H  8.17  12.03  12.05  #14
  O  12.32  9.85  9.63  #15
  H  12.93  9.98  8.92  #16
  O  6.72  8.84  12.02  #17
  H  6.2  9.57  11.5  #18
  H  6.05  8.3  12.51  #19
  O  13.85  9.74  7.11  #20
  H  14.75  10.13  7.32  #21
  H  13.33  10.5  6.89  #22
  O  12.73  6.61  11.9  #23
  H  12.6  5.75  12.34  #24
  H  12.08  6.74  11.18  #25
  O  5.6  10.93  10.35  #26
  H  5.07  10.59  9.61  #27
  H  6.23  11.57  9.95  #28
  O  14.79  7.65  8.35  #29
  H  14.76  7.81  9.3  #30
  H  14.26  8.23  7.77  #31
  O  12.64  4.25  13.44  #32
  H  13.33  4.29  14.12  #33
  H  12.67  3.39  12.99  #34
  O  15.18  8.97  4.52  #35
  H  15.21  8  4.35  #36
  H  14.66  9.18  5.34  #37
  O  10.05  5.86  13.28  #38
  H  10.7  6.45  12.88  #39
  H  10.43  5.01  13.55  #40
  O  6.95  11.16  13.97  #41
  H  6.73  10.43  13.46  #42
  H  6.08  11.25  14.39  #43
  O  7.73  10.22  8.03  #44
  H  8.09  9.8  7.21  #45
  H  8.3  11  8.02  #46
  O  9.17  12.61  7.9  #47
  H  8.96  13.51  7.55  #48
  H  9.11  12.69  8.81  #49
  O  8.44  8.25  9.73  #50
  H  8.02  8.14  10.54  #51
  H  8.21  9.11  9.32  #52
  O  5  9.71  7.65  #53
  H  5.91  10.14  7.86  #54
  H  4.96  8.82  7.99  #55
  O  10.75  14.06  14.19  #56
  H  11.08  14.63  14.89  #57
  H  9.8  13.94  14.45  #58
  O  3.88  10.45  12.74  #59
  H  3.35  9.7  12.61  #60
  H  4.23  10.74  11.85  #61
  O  12.42  11.04  15.55  #62
  H  13.2  11.59  15.62  #63
  H  11.67  11.67  15.33  #64
  O  6.19  13.18  8.67  #65
  H  6.1  12.97  7.73  #66
  H  6.61  14.04  8.91  #67
  O  16.34  9.82  12.12  #68
  H  17.26  9.55  12.02  #69
  H  16.17  10.21  12.94  #70
  O  3.42  13.11  9.81  #71
  H  3.35  13.19  10.8  #72
  H  4.33  13.07  9.6  #73
  O  17.74  8.03  8.95  #74
  H  16.95  8.44  8.66  #75
  H  17.68  7.06  8.89  #76
  O  5.1  6.93  13.61  #77
  H  4.51  6.1  13.74  #78
  H  5.9  6.73  14.08  #79
  O  13.85  5.14  7.46  #80
  H  14.05  6.04  7.71  #81
  H  13.28  4.7  8.18  #82
  O  8.05  13.83  14.37  #83
  H  7.35  14.17  14.94  #84
  H  7.7  12.97  14.25  #85
  O  11.95  12.02  6.46  #86
  H  11.32  12.16  7.22  #87
  H  12.7  12.66  6.67  #88
  O  16.85  5.47  9.57  #89
  H  16.3  5.19  8.8  #90
  H  16.2  5.99  10.18  #91
  O  16.54  10.39  7.3  #92
  H  17.22  9.78  6.93  #93
  H  17.05  10.98  7.85  #94
  O  11.04  7.27  9.96  #95
  H  11.56  8.1  9.8  #96
  H  10.08  7.54  9.81  #97
  O  9.5  15.02  11.26  #98
  H  9.51  14.14  11.66  #99
  H  10.38  15.17  10.84  #100
  O  15.24  7.48  11.31  #101
  H  15.6  8.32  11.74  #102
  H  14.3  7.26  11.53  #103
  Q  0.6645  9.55$  19.57$  8.38$
  Q  0.6645  9.43$  20.1$  9.87$
  Q  -1.3290  9.33$  19.54$  9.23$
  Q  0.6645  7.77$  17.14$  15.9$
  Q  0.6645  6.99$  17.53$  17.19$
  Q  -1.3290  7.25$  16.98$  16.56$
  Q  0.6645  6$  19.02$  14.55$
  Q  0.6645  5.5$  20.48$  14.94$
  Q  -1.3290  6.07$  19.83$  14.87$
  Q  0.6645  18.2$  14.1$  8.22$
  Q  0.6645  18.65$  15.32$  9.04$
  Q  -1.3290  18.36$  14.95$  8.38$
  Q  0.6645  16.52$  2.53$  9.13$
  Q  0.6645  17.18$  3.7$  9.94$
  Q  -1.3290  16.89$  2.87$  9.82$
  Q  0.6645  6.4$  10.05$  18.53$
  Q  0.6645  6.9$  8.83$  19.15$
  Q  -1.3290  6.41$  9.24$  18.63$
  Q  0.6645  19.72$  3.2$  9.41$
  Q  0.6645  19.92$  4.67$  9.58$
  Q  -1.3290  20.02$  3.87$  9.8$
  Q  0.6645  11.99$  16.39$  15.99$
  Q  0.6645  10.71$  17.04$  15.27$
  Q  -1.3290  11.25$  16.44$  15.56$
  Q  0.6645  2.11$  14.24$  13.11$
  Q  0.6645  0.81$  15.1$  12.9$
  Q  -1.3290  1.43$  14.73$  13.36$
  Q  0.6645  13.73$  17.25$  16.41$
  Q  0.6645  12.98$  17.16$  17.8$
  Q  -1.3290  13.57$  16.93$  17.19$
  Q  0.6645  16.59$  11.63$  11.47$
  Q  0.6645  17.04$  12.69$  12.49$
  Q  -1.3290  16.82$  12.39$  11.72$
  Q  0.6645  13.03$  7.27$  3.68$
  Q  0.6645  12.19$  5.98$  3.76$
  Q  -1.3290  12.82$  6.5$  4$
  Q  0.6645  15.14$  15.24$  9.86$
  Q  0.6645  15.11$  16.32$  8.89$
  Q  -1.3290  14.83$  15.62$  9.19$
  Q  0.6645  16.86$  6.26$  13.9$
  Q  0.6645  15.76$  6.41$  12.88$
  Q  -1.3290  16.12$  6.1$  13.57$
  Q  0.6645  8.55$  16.36$  18.08$
  Q  0.6645  9.03$  17.55$  18.9$
  Q  -1.3290  8.91$  16.74$  18.74$
  Q  0.6645  7.12$  9.19$  16.87$
  Q  0.6645  7.74$  9.71$  15.45$
  Q  -1.3290  7.56$  9.16$  16.1$
  Q  0.6645  18.74$  12.82$  3.1$
  Q  0.6645  19.74$  13.69$  3.94$
  Q  -1.3290  19.32$  13.46$  3.24$
  Q  0.6645  9.46$  21.95$  10.82$
  Q  0.6645  8.66$  20.83$  11.46$
  Q  -1.3290  9.4$  21.21$  11.23$
  Q  0.6645  14.97$  5.84$  3.68$
  Q  0.6645  16.45$  5.81$  4.19$
  Q  -1.3290  15.8$  6.09$  3.7$
  Q  0.6645  14.47$  12.92$  3.77$
  Q  0.6645  15.36$  14.03$  4.14$
  Q  -1.3290  14.71$  13.51$  4.26$
  Q  0.6645  21.88$  7.21$  12.39$
  Q  0.6645  20.51$  7.79$  12.17$
  Q  -1.3290  21.09$  7.26$  12.53$
  Q  0.6645  18.21$  12.64$  9.81$
  Q  0.6645  19.2$  11.86$  8.95$
  Q  -1.3290  18.49$  12.26$  9.1$
  Q  0.6645  3.94$  6.23$  5.49$
  Q  0.6645  2.93$  5.11$  5.16$
  Q  -1.3290  3.35$  5.63$  5.67$
  Q  0.6645  12.57$  2.89$  9.65$
  Q  0.6645  11.29$  3.81$  9.65$
  Q  -1.3290  12.02$  3.47$  9.34$
  Q  0.6645  10.54$  3.81$  17.47$
  Q  0.6645  12$  3.6$  17.49$
  Q  -1.3290  11.31$  3.94$  17.2$
  Q  0.6645  2.64$  11.7$  6.26$
  Q  0.6645  2.77$  10.36$  5.64$
  Q  -1.3290  2.59$  10.87$  6.28$
  Q  0.6645  7.73$  4.96$  15.77$
  Q  0.6645  8.07$  3.62$  15.15$
  Q  -1.3290  7.67$  4.12$  15.71$
  Q  0.6645  14.37$  18.94$  15.13$
  Q  0.6645  12.99$  18.42$  14.44$
  Q  -1.3290  13.74$  18.36$  14.9$
  Q  0.6645  2.33$  13.95$  6.75$
  Q  0.6645  3.57$  13.99$  5.75$
  Q  -1.3290  2.88$  13.63$  6.17$
  Q  0.6645  8.86$  5.2$  19.25$
  Q  0.6645  9.74$  5.56$  20.39$
  Q  -1.3290  9.01$  5.54$  19.99$
  Q  0.6645  1.6$  15.62$  8.47$
  Q  0.6645  2.16$  14.36$  9.16$
  Q  -1.3290  1.6$  14.79$  8.7$
  Q  0.6645  10.57$  19.11$  6.2$
  Q  0.6645  9.13$  19.69$  6.33$
  Q  -1.3290  9.93$  19.59$  6.51$
  Q  0.6645  17.31$  7.03$  2.76$
  Q  0.6645  18.07$  8.22$  2.82$
  Q  -1.3290  18.02$  7.41$  2.69$
  Q  0.6645  11.06$  14.22$  18.49$
  Q  0.6645  11.56$  13.93$  19.86$
  Q  -1.3290  11.66$  14.19$  19.06$
  Q  0.6645  12.57$  9.86$  16.8$
  Q  0.6645  12.57$  9.41$  18.33$
  Q  -1.3290  12.61$  9.3$  17.47$
  Q  0.6645  5.11$  11.61$  6.43$
  Q  0.6645  6.38$  12.26$  5.62$
  Q  -1.3290  5.72$  12.19$  6.2$
  Q  0.6645  8.43$  12.26$  4.67$
  Q  0.6645  7.49$  12.9$  3.78$
  Q  -1.3290  7.84$  12.8$  4.5$
  Q  0.6645  19.79$  13.33$  14.03$
  Q  0.6645  18.67$  14.31$  14.32$
  Q  -1.3290  19.09$  13.75$  13.84$
  Q  0.6645  13.68$  11.43$  1.71$
  Q  0.6645  14.28$  12.83$  1.57$
  Q  -1.3290  14.22$  12.05$  1.84$
  Q  0.6645  9.98$  9.95$  0.81$
  Q  0.6645  10.18$  8.41$  1.06$
  Q  -1.3290  9.73$  9.16$  1.01$
  Q  0.6645  3.3$  9.28$  17.44$
  Q  0.6645  4.34$  9.26$  18.46$
  Q  -1.3290  3.59$  9.14$  18.19$
  Q  0.6645  21.03$  8.87$  8.3$
  Q  0.6645  22.37$  8.03$  8.76$
  Q  -1.3290  21.58$  8.19$  8.4$
  Q  0.6645  20.73$  10.41$  14.55$
  Q  0.6645  22.04$  9.74$  14.41$
  Q  -1.3290  21.55$  10.39$  14.35$
  Q  0.6645  7.45$  16.59$  8.53$
  Q  0.6645  6.5$  17$  7.23$
  Q  -1.3290  7.25$  16.93$  7.75$
  Q  0.6645  10.91$  18.45$  10.19$
  Q  0.6645  11.68$  17.17$  10.62$
  Q  -1.3290  11.48$  18.03$  10.63$
  Q  0.6645  16.41$  8.64$  19.9$
  Q  0.6645  16.38$  7.06$  19.52$
  Q  -1.3290  16.5$  7.91$  19.42$
  Q  0.6645  1.9$  7.82$  11.5$
  Q  0.6645  2.97$  7.4$  12.52$
  Q  -1.3290  2.27$  7.79$  12.28$
  Q  0.6645  15.63$  15.5$  6.85$
  Q  0.6645  16.89$  16.05$  7.24$
  Q  -1.3290  16.18$  16.07$  6.81$
  Q  0.6645  -0.28$  16.64$  10.46$
  Q  0.6645  0.96$  15.83$  10.43$
  Q  -1.3290  0.36$  16.25$  10.82$
  Q  0.6645  19.04$  10.19$  18.74$
  Q  0.6645  18.38$  8.73$  18.65$
  Q  -1.3290  18.8$  9.43$  18.35$
  Q  0.6645  20.43$  14$  10.35$
  Q  0.6645  21.44$  13.82$  9.2$
  Q  -1.3290  20.99$  13.59$  9.9$
  Q  0.6645  9.66$  4.29$  10.96$
  Q  0.6645  9.23$  4.29$  9.53$
  Q  -1.3290  9.59$  3.97$  10.22$
  Q  0.6645  1.24$  11.36$  16.96$
  Q  0.6645  1.99$  12.83$  16.69$
  Q  -1.3290  1.9$  11.97$  16.88$
  Q  0.6645  12.82$  15.48$  9.61$
  Q  0.6645  11.66$  15.8$  8.83$
  Q  -1.3290  12.05$  15.63$  9.53$
  Q  0.6645  10.37$  2.91$  13.9$
  Q  0.6645  10.78$  3.58$  15.24$
  Q  -1.3290  10.24$  3.24$  14.66$
  Q  0.6645  2.11$  4.74$  8.85$
  Q  0.6645  2.82$  4.81$  7.41$
  Q  -1.3290  2.75$  4.7$  8.28$
  Q  0.6645  17.27$  19.99$  11.61$
  Q  0.6645  16.69$  18.71$  12.25$
  Q  -1.3290  16.92$  19.22$  11.62$
  Q  0.6645  19.38$  15.96$  11.51$
  Q  0.6645  18.67$  14.61$  11.83$
  Q  -1.3290  18.99$  15.21$  11.31$
  Q  0.6645  9.89$  3.65$  5.68$
  Q  0.6645  10.22$  2.08$  6.05$
  Q  -1.3290  10.03$  2.79$  5.56$
  Q  0.6645  4.14$  8.09$  14.85$
  Q  0.6645  2.6$  8.46$  14.92$
  Q  -1.3290  3.44$  8.45$  15.17$
  Q  0.6645  20.77$  5.55$  13.86$
  Q  0.6645  20.35$  5.69$  15.23$
  Q  -1.3290  20.85$  5.43$  14.65$
  Q  0.6645  8.49$  5.76$  5.48$
  Q  0.6645  9.92$  5.95$  5.97$
  Q  -1.3290  9.17$  5.54$  5.91$
  Q  0.6645  3.99$  10.53$  15.07$
  Q  0.6645  3.32$  11.55$  16.04$
  Q  -1.3290  3.96$  11.2$  15.59$
  Q  0.6645  9.61$  1.89$  15.69$
  Q  0.6645  9.28$  1.39$  17.2$
  Q  -1.3290  9.25$  1.38$  16.31$
  Q  0.6645  16.95$  16.39$  15.15$
  Q  0.6645  17.36$  15.67$  16.45$
  Q  -1.3290  17.41$  15.89$  15.65$
  Q  0.6645  12.55$  7.39$  17.09$
  Q  0.6645  11.96$  5.98$  16.92$
  Q  -1.3290  12.55$  6.53$  17.11$
  Q  0.6645  6.66$  16.76$  10.42$
  Q  0.6645  7.95$  15.81$  10.55$
  Q  -1.3290  7.13$  16.05$  10.31$
  Q  0.6645  17.69$  10.98$  2.45$
  Q  0.6645  16.37$  11.7$  1.82$
  Q  -1.3290  17.22$  11.56$  1.98$
  Q  0.6645  3.25$  3.9$  10.73$
  Q  0.6645  4.56$  3.94$  11.6$
  Q  -1.3290  3.75$  3.68$  11.37$
  Q  0.6645  2.25$  8.92$  9.6$
  Q  0.6645  2.92$  7.57$  9.35$
  Q  -1.3290  2.31$  8.06$  9.61$
  Q  0.6645  16.74$  12.27$  20.72$
  Q  0.6645  16.63$  13.76$  20.75$
  Q  -1.3290  16.41$  12.99$  20.5$
  Q  0.6645  15.14$  4.14$  7.33$
  Q  0.6645  16.1$  2.91$  6.83$
  Q  -1.3290  15.79$  3.56$  7.36$
  Q  0.6645  8.26$  8.88$  2.61$
  Q  0.6645  7.26$  7.79$  2.94$
  Q  -1.3290  7.79$  8.43$  3.11$
  Q  0.6645  20.83$  10.64$  9.42$
  Q  0.6645  20.54$  10.94$  7.93$
  Q  -1.3290  20.43$  10.54$  8.68$
  Q  0.6645  5.77$  3.25$  7.64$
  Q  0.6645  4.57$  3.75$  8.56$
  Q  -1.3290  5.4$  3.46$  8.38$
  Q  0.6645  8.64$  2.59$  18.58$
  Q  0.6645  8.49$  3.46$  17.32$
  Q  -1.3290  8.76$  3.29$  18.12$
  Q  0.6645  15.11$  5.05$  15.05$
  Q  0.6645  13.95$  5.41$  15.99$
  Q  -1.3290  14.51$  4.9$  15.62$
  Q  0.6645  9.32$  16.73$  12.16$
  Q  0.6645  8.33$  17.68$  11.59$
  Q  -1.3290  8.82$  17.4$  12.18$
  Q  0.6645  15.97$  9.82$  15.61$
  Q  0.6645  17.38$  10.35$  15.12$
  Q  -1.3290  16.51$  10.29$  15.13$
  Q  0.6645  7.15$  3.81$  6.34$
  Q  0.6645  7.77$  2.44$  6.28$
  Q  -1.3290  7.14$  2.99$  6.24$
  Q  0.6645  3.02$  12.5$  18.47$
  Q  0.6645  2.42$  13.17$  19.53$
  Q  -1.3290  3.09$  12.95$  19.15$
  Q  0.6645  2.66$  10.53$  8.42$
  Q  0.6645  2.37$  11.56$  9.52$
  Q  -1.3290  2.35$  10.8$  9.15$
  Q  0.6645  15.84$  17.92$  6.03$
  Q  0.6645  16.43$  19.31$  5.72$
  Q  -1.3290  15.95$  18.65$  5.57$
  Q  0.6645  7.2$  12.26$  18.68$
  Q  0.6645  6.14$  12.54$  17.51$
  Q  -1.3290  6.63$  12.07$  18.05$
  Q  0.6645  5.12$  15.65$  5.91$
  Q  0.6645  5.8$  14.37$  5.31$
  Q  -1.3290  5.25$  15.04$  5.32$
  Q  0.6645  17.11$  4.05$  13.63$
  Q  0.6645  18.39$  3.1$  13.36$
  Q  -1.3290  17.69$  3.41$  13.76$
  Q  0.6645  12.4$  18.83$  6.47$
  Q  0.6645  12.7$  18.26$  5.06$
  Q  -1.3290  12.23$  18.37$  5.76$
  Q  0.6645  16.75$  9.71$  4.13$
  Q  0.6645  18.2$  10.2$  4.42$
  Q  -1.3290  17.56$  9.88$  3.95$
  Q  0.6645  17.42$  4.79$  6.35$
  Q  0.6645  18.36$  4.79$  5.09$
  Q  -1.3290  17.74$  5.06$  5.61$
  Q  0.6645  13.88$  0.2$  12.82$
  Q  0.6645  14$  1.32$  13.92$
  Q  -1.3290  13.78$  0.97$  13.13$
  Q  0.6645  6.68$  5.7$  4.23$
  Q  0.6645  6.06$  7$  4.91$
  Q  -1.3290  6.57$  6.32$  4.85$
  Q  0.6645  15.4$  12.18$  15.37$
  Q  0.6645  14.76$  12.88$  16.58$
  Q  -1.3290  14.88$  12.69$  15.78$
  Q  0.6645  15.15$  12.86$  18.88$
  Q  0.6645  13.7$  13.35$  18.59$
  Q  -1.3290  14.42$  12.89$  18.47$
  Q  0.6645  11.4$  11.39$  0.87$
  Q  0.6645  11.14$  11.17$  2.31$
  Q  -1.3290  11.52$  11.05$  1.59$
  Q  0.6645  20.74$  9.7$  3.7$
  Q  0.6645  19.94$  9.16$  4.89$
  Q  -1.3290  20.36$  9.73$  4.45$
  Q  0.6645  5.07$  13.65$  19.26$
  Q  0.6645  6.55$  14.13$  19.22$
  Q  -1.3290  5.71$  14.23$  19.22$
  Q  0.6645  4.61$  16.82$  8.09$
  Q  0.6645  4.21$  17.59$  6.84$
  Q  -1.3290  4.61$  16.98$  7.27$
  Q  0.6645  13.17$  19.93$  12.24$
  Q  0.6645  14.37$  20.2$  11.24$
  Q  -1.3290  13.95$  20.24$  11.95$
  Q  0.6645  8.89$  18.85$  15.21$
  Q  0.6645  8.96$  17.88$  14.04$
  Q  -1.3290  8.99$  18.1$  14.86$
  Q  0.6645  14.44$  8.52$  16.91$
  Q  0.6645  15.8$  8.52$  17.77$
  Q  -1.3290  15.28$  8.57$  17.07$
  Q  0.6645  11.03$  19.51$  13.52$
  Q  0.6645  11.67$  18.7$  12.46$
  Q  -1.3290  11.64$  19.09$  13.2$
  Q  0.6645  9.29$  2.18$  9.75$
  Q  0.6645  9.75$  1.01$  8.89$
  Q  -1.3290  9.27$  1.37$  9.46$
  Q  0.6645  8.3$  15.78$  6.71$
  Q  0.6645  8.46$  14.54$  5.89$
  Q  -1.3290  8.69$  15.06$  6.48$
  Q  0.6645  3.64$  14.82$  17.38$
  Q  0.6645  3.04$  15.43$  16.13$
  Q  -1.3290  3.13$  14.82$  16.73$
  Q  0.6645  10.78$  13.06$  21.65$
  Q  0.6645  12.4$  13.03$  21.42$
  Q  -1.3290  11.56$  12.76$  21.36$
  Q  0.6645  13.17$  8.48$  22.29$
  Q  0.6645  12.94$  9.29$  20.9$
  Q  -1.3290  12.81$  8.72$  21.54$
  Q  0.6645  14.16$  0.78$  7.43$
  Q  0.6645  13.54$  1.55$  6.08$
  Q  -1.3290  13.72$  0.91$  6.65$
  Q  0.6645  7.94$  7.2$  20.44$
  Q  0.6645  8.06$  8.4$  21.46$
  Q  -1.3290  7.76$  7.97$  20.78$
  Q  0.6645  7.01$  5.42$  10.13$
  Q  0.6645  6.69$  5.75$  11.49$
  Q  -1.3290  6.72$  5.94$  10.7$
  Q  0.6645  12.88$  19.27$  9$
  Q  0.6645  13.17$  20.62$  8.4$
  Q  -1.3290  13.04$  19.79$  8.38$
  Q  0.6645  11.91$  3.29$  5.31$
  Q  0.6645  13.14$  4.04$  5.79$
  Q  -1.3290  12.73$  3.48$  5.37$
  Q  0.6645  14.61$  13.63$  6.34$
  Q  0.6645  14.13$  14.29$  7.72$
  Q  -1.3290  14.34$  13.65$  7.16$
  Q  0.6645  14.56$  17.63$  3.44$
  Q  0.6645  13.34$  16.82$  3.66$
  Q  -1.3290  13.77$  17.52$  3.56$
  Q  0.6645  3.26$  4.12$  13.28$
  Q  0.6645  2.48$  4.5$  14.58$
  Q  -1.3290  3.13$  4.53$  14.02$
  Q  0.6645  20.51$  6.53$  7.99$
  Q  0.6645  19.92$  5.75$  6.8$
  Q  -1.3290  20.03$  5.92$  7.61$
  Q  0.6645  11.6$  16.74$  6.7$
  Q  0.6645  10.51$  15.5$  6.91$
  Q  -1.3290  11.31$  15.9$  6.84$
  Q  0.6645  13.49$  11.22$  19.44$
  Q  0.6645  12.21$  11.22$  20.14$
  Q  -1.3290  12.8$  10.85$  19.77$
  Q  0.6645  4.83$  8.81$  5.91$
  Q  0.6645  3.85$  8.55$  4.7$
  Q  -1.3290  4.49$  8.39$  5.25$
  Q  0.6645  6.05$  15.12$  11.64$
  Q  0.6645  6.22$  14.76$  13.22$
  Q  -1.3290  5.84$  15.03$  12.5$
  Q  0.6645  8.1$  11.62$  16.84$
  Q  0.6645  9.45$  10.89$  16.79$
  Q  -1.3290  8.92$  11.54$  16.68$
  Q  0.6645  14.9$  20.29$  13.73$
  Q  0.6645  16.04$  20.96$  14.51$
  Q  -1.3290  15.3$  20.56$  14.44$
  Q  0.6645  17.43$  7.87$  15.65$
  Q  0.6645  18.32$  6.58$  15.92$
  Q  -1.3290  17.88$  7.16$  15.42$
  Q  0.6645  2.26$  16.38$  14.42$
  Q  0.6645  2.87$  17.58$  15.23$
  Q  -1.3290  2.8$  16.77$  14.92$
  Q  0.6645  5.91$  9.49$  3.28$
  Q  0.6645  5.47$  9.03$  1.79$
  Q  -1.3290  5.45$  9.48$  2.55$
  Q  0.6645  4.24$  6.37$  8.4$
  Q  0.6645  5.39$  6.86$  9.25$
  Q  -1.3290  4.75$  6.96$  8.73$
  Q  0.6645  4.18$  18.12$  9.91$
  Q  0.6645  4.15$  16.69$  10.67$
  Q  -1.3290  4.15$  17.24$  10.01$
  Q  0.6645  6.03$  15.03$  16.2$
  Q  0.6645  4.91$  13.95$  15.94$
  Q  -1.3290  5.68$  14.25$  16.02$
  Q  0.6645  16$  16.52$  12.61$
  Q  0.6645  15.09$  17.11$  13.76$
  Q  -1.3290  15.82$  16.96$  13.33$
  Q  0.6645  12.01$  15.16$  5.2$
  Q  0.6645  13.23$  14.51$  4.53$
  Q  -1.3290  12.51$  14.98$  4.54$
  Q  0.6645  0.3$  7.88$  15.83$
  Q  0.6645  0.26$  7.27$  14.67$
  Q  -1.3290  0.57$  7.83$  15.12$
  Q  0.6645  8.31$  13.27$  20.53$
  Q  0.6645  8.76$  13.69$  19.05$
  Q  -1.3290  8.3$  13.28$  19.68$
  Q  0.6645  12.42$  9.37$  2.16$
  Q  0.6645  13.58$  9.46$  3.12$
  Q  -1.3290  13.02$  9.04$  2.66$
  Q  0.6645  15.04$  2.5$  10.6$
  Q  0.6645  13.86$  1.78$  11.51$
  Q  -1.3290  14.22$  2.27$  10.87$
  Q  0.6645  20.46$  14.46$  5.77$
  Q  0.6645  19.23$  14.86$  6.58$
  Q  -1.3290  19.65$  14.72$  5.88$
  Q  0.6645  8.6$  6.62$  14$
  Q  0.6645  7.95$  7.55$  14.96$
  Q  -1.3290  8.01$  6.83$  14.51$
  Q  0.6645  21.21$  11.9$  10.93$
  Q  0.6645  21.3$  10.87$  12.15$
  Q  -1.3290  21.08$  11.15$  11.37$
  Q  0.6645  11.14$  14.83$  3.18$
  Q  0.6645  10.29$  15.64$  2.17$
  Q  -1.3290  10.62$  14.94$  2.52$
  Q  0.6645  16.37$  18.57$  9.85$
  Q  0.6645  15.5$  19.21$  8.88$
  Q  -1.3290  16.01$  18.65$  9.11$
  Q  0.6645  17.14$  15.54$  4.94$
  Q  0.6645  17.86$  14.76$  3.82$
  Q  -1.3290  17.23$  15.19$  4.16$
  Q  0.6645  6.63$  20.24$  7.77$
  Q  0.6645  7.28$  18.9$  7.54$
  Q  -1.3290  6.97$  19.63$  7.29$
  Q  0.6645  9.86$  10.44$  4.85$
  Q  0.6645  10.87$  11.56$  5.09$
  Q  -1.3290  10.22$  11.18$  4.71$
  Q  0.6645  4.78$  6.03$  18.18$
  Q  0.6645  5.44$  7.06$  19$
  Q  -1.3290  5.3$  6.29$  18.76$
  Q  0.6645  19.01$  8.81$  15.2$
  Q  0.6645  19.02$  9.65$  16.46$
  Q  -1.3290  19.07$  9.52$  15.62$
  Q  0.6645  15.32$  1.38$  16.18$
  Q  0.6645  14.89$  2.82$  15.84$
  Q  -1.3290  14.98$  1.99$  15.71$
  Q  0.6645  22.5$  10.87$  6.59$
  Q  0.6645  21.01$  10.67$  5.86$
  Q  -1.3290  21.62$  11.01$  6.43$
  Q  0.6645  6.03$  3.18$  12.94$
  Q  0.6645  6.38$  4.43$  13.74$
  Q  -1.3290  6.28$  3.96$  13.07$
  Q  0.6645  15.49$  16.05$  19.67$
  Q  0.6645  14$  15.61$  19.27$
  Q  -1.3290  14.64$  15.96$  19.74$
  Q  0.6645  10.82$  1.89$  11.46$
  Q  0.6645  11.63$  1.37$  12.72$
  Q  -1.3290  11.15$  1.89$  12.24$
  Q  0.6645  11.76$  6.12$  7$
  Q  0.6645  12.03$  6.8$  5.79$
  Q  -1.3290  11.53$  6.63$  6.39$
  Q  0.6645  19.66$  9.8$  11.3$
  Q  0.6645  18.93$  8.6$  10.72$
  Q  -1.3290  19.23$  9.07$  11.37$
  Q  0.6645  3.3$  12.12$  12.93$
  Q  0.6645  4.2$  13.39$  12.82$
  Q  -1.3290  3.5$  12.9$  12.67$
  Q  0.6645  16.04$  14.14$  11.45$
  Q  0.6645  14.97$  14.88$  12.33$
  Q  -1.3290  15.63$  14.81$  11.77$
  Q  0.6645  9.39$  13.61$  16.83$
  Q  0.6645  9.9$  15.06$  16.64$
  Q  -1.3290  9.69$  14.37$  17.08$
  Q  0.6645  18.76$  18.42$  11.59$
  Q  0.6645  20.06$  18.5$  12.4$
  Q  -1.3290  19.55$  18.21$  11.82$
  Q  0.6645  6.74$  19.49$  10.3$
  Q  0.6645  6.54$  19.35$  11.91$
  Q  -1.3290  6.66$  19.08$  11.06$
  Q  0.6645  12.2$  4$  2.78$
  Q  0.6645  10.76$  3.81$  2.36$
  Q  -1.3290  11.49$  4.2$  2.42$
  Q  0.6645  18.61$  8.18$  7.05$
  Q  0.6645  18.3$  7.5$  5.82$
  Q  -1.3290  18.61$  8.09$  6.25$
  Q  0.6645  13.18$  6.93$  20.3$
  Q  0.6645  13.23$  6.34$  18.75$
  Q  -1.3290  13.32$  6.34$  19.64$
  Q  0.6645  4.24$  5.24$  15.97$
  Q  0.6645  3.4$  6.67$  16.03$
  Q  -1.3290  3.86$  5.97$  16.32$
  Q  0.6645  12.78$  14.37$  13.44$
  Q  0.6645  13.94$  14.02$  14.45$
  Q  -1.3290  13.58$  14.36$  13.75$
  Q  0.6645  4.43$  17.39$  14.38$
  Q  0.6645  5.29$  16.82$  13.25$
  Q  -1.3290  5.03$  17.41$  13.77$
  Q  0.6645  8.71$  8.64$  4.85$
  Q  0.6645  9.79$  8.35$  5.99$
  Q  -1.3290  9.14$  8.78$  5.6$
  Q  0.6645  4.14$  18.93$  12.39$
  Q  0.6645  4.29$  20.06$  11.42$
  Q  -1.3290  3.88$  19.57$  11.94$
  Q  0.6645  8.19$  6.57$  8.98$
  Q  0.6645  8.32$  5.56$  7.71$
  Q  -1.3290  8.39$  5.82$  8.53$
  Q  0.6645  12.06$  18$  20.06$
  Q  0.6645  11.26$  16.91$  19.3$
  Q  -1.3290  11.85$  17.49$  19.4$
  Q  0.6645  6.11$  13.11$  2.14$
  Q  0.6645  6.08$  11.5$  1.89$
  Q  -1.3290  6.45$  12.3$  1.98$
  Q  0.6645  0.43$  13.46$  14.67$
  Q  0.6645  0.04$  12.04$  15.08$
  Q  -1.3290  0.08$  12.9$  15.17$
*
