! NoMOPrint PrintBasis #MINIPRINT SMALLPRINT LARGEPRINT
! ALLPOP XYZFILE
#! BP86 3-21G   TightSCF
! ENGRAD
! B3LYP NormalPNO PModel #DecontractAux
#! VerySlowConv 
 %maxcore 5000
 %scf  maxiter   500  end 

%pal
    nprocs 32
end

%basis
    NewGTO O    # New basis for oxygen
        "aug-cc-pVTZ"
    end
    NewGTO C    # New basis for carbon
        "aug-cc-pVTZ"
    end
    NewGTO H    # New basis for hydrogen
        "cc-pVTZ"
    end
end

* xyz 0   1
  C  9.82  12.04  11.2  #1
  H  9.32  12.86  11.79  #2
  H  9.35  12.05  10.24  #3
  C  9.94  10.64  11.67  #4
  H  10.39  10.67  12.68  #5
  H  8.94  10.28  11.77  #6
  C  10.79  9.63  10.85  #7
  H  10.46  9.79  9.82  #8
  H  10.4  8.58  11.11  #9
  C  12.38  9.65  10.79  #10
  H  12.86  9.5  11.77  #11
  H  12.64  10.57  10.33  #12
  O  12.82  8.66  9.98  #13
  H  12.45  8.84  9.11  #14
  O  11.1  12.58  11.07  #15
  H  11.12  13.22  10.38  #16
  O  14.78  6.63  10.76  #17
  H  14.84  6.85  11.71  #18
  H  14.19  7.3  10.38  #19
  O  7.76  9.92  14.26  #20
  H  7.84  9.52  13.43  #21
  H  7.72  9.24  14.92  #22
  O  14.97  10.29  13.22  #23
  H  15.64  10.74  13.77  #24
  H  14.12  10.75  13.34  #25
  O  6.79  13.78  11.73  #26
  H  6.22  13.61  11.03  #27
  H  7.56  14.24  11.4  #28
  O  8.76  15.23  10.67  #29
  H  8.55  15.6  9.83  #30
  H  9.32  15.84  11.17  #31
  O  11.72  13.9  8.14  #32
  H  11.16  13.1  8.09  #33
  H  11.18  14.69  8.43  #34
  O  7.52  12.82  14.36  #35
  H  7.41  11.9  14.1  #36
  H  7.19  13.29  13.52  #37
  O  10.41  16.82  12.37  #38
  H  11.35  16.79  12.28  #39
  H  10.29  16.81  13.33  #40
  O  14.59  3.89  10.83  #41
  H  14.86  3.6  9.96  #42
  H  14.32  4.83  10.73  #43
  O  15.91  11.06  10.71  #44
  H  15.8  10.63  9.87  #45
  H  15.73  10.36  11.33  #46
  O  11.87  17.02  9.01  #47
  H  12.31  17.26  9.85  #48
  H  12.63  16.78  8.49  #49
  O  17.85  6.04  10.8  #50
  H  16.88  6.14  10.9  #51
  H  18.07  5.69  11.62  #52
  O  14.67  9.15  6.27  #53
  H  13.83  9.29  6.76  #54
  H  14.52  9.27  5.35  #55
  O  12.75  11.57  14.39  #56
  H  13.29  11.77  15.19  #57
  H  13.03  12.2  13.73  #58
  O  14.45  13.28  6.91  #59
  H  13.59  13.24  7.3  #60
  H  14.82  12.4  6.86  #61
  O  7.49  7.44  11.53  #62
  H  7.94  6.87  10.88  #63
  H  7.36  8.24  11.05  #64
  O  7.66  10.79  8.73  #65
  H  7.94  9.88  8.71  #66
  H  6.7  10.7  8.56  #67
  O  11.95  6.32  13.27  #68
  H  11.6  6.93  13.89  #69
  H  12.88  6.51  13.05  #70
  O  13.43  13.74  12.52  #71
  H  12.62  13.3  12.24  #72
  H  13.63  14.06  11.65  #73
  O  6.07  10.32  11.48  #74
  H  5.24  10.11  11.9  #75
  H  5.85  10.72  10.61  #76
  O  9.2  6.32  9.4  #77
  H  9.92  5.93  9.92  #78
  H  8.73  5.55  9.05  #79
  O  17.15  11.33  14.81  #80
  H  18.1  11.24  14.66  #81
  H  16.86  12.21  14.56  #82
  O  10.76  11.36  7.19  #83
  H  11.18  11.55  6.3  #84
  H  9.81  11.35  7.06  #85
  O  10.67  10.43  16  #86
  H  10.28  9.74  15.38  #87
  H  11.27  10.96  15.48  #88
  O  7.78  16.64  8.48  #89
  H  8.37  16.8  7.69  #90
  H  6.92  16.52  8.06  #91
  O  15.29  7.45  13.33  #92
  H  15.54  8.31  13.12  #93
  H  15.13  7.47  14.33  #94
  O  11.97  15.7  5.83  #95
  H  12.29  15.29  6.64  #96
  H  12.03  16.67  5.91  #97
  O  5.46  16.32  12.03  #98
  H  5.49  16.49  12.99  #99
  H  5.94  15.44  12.04  #100
  O  11.89  8.76  7.29  #101
  H  11.48  7.87  7.35  #102
  H  11.31  9.46  7.44  #103
  O  4.27  13.27  10.03  #104
  H  3.78  13.02  10.83  #105
  H  3.71  13.93  9.62  #106
  Q  0.6645  15.37$  13.19$  16.61$
  Q  0.6645  15.61$  14.19$  15.56$
  Q  -1.3290  15.48$  13.95$  16.33$
  Q  0.6645  9.83$  4.9$  2.5$
  Q  0.6645  10.47$  3.46$  2.45$
  Q  -1.3290  9.84$  4.04$  2.57$
  Q  0.6645  12.45$  9.1$  16.9$
  Q  0.6645  13.31$  8.37$  17.96$
  Q  -1.3290  13.16$  8.75$  17.2$
  Q  0.6645  16.6$  10.37$  16.39$
  Q  0.6645  16.4$  9.87$  17.74$
  Q  -1.3290  16.75$  9.84$  17.02$
  Q  0.6645  6.69$  1.35$  9.95$
  Q  0.6645  5.53$  1.69$  10.86$
  Q  -1.3290  5.93$  1.59$  10.1$
  Q  0.6645  9.12$  17.58$  5.54$
  Q  0.6645  10.11$  16.4$  6.03$
  Q  -1.3290  9.55$  17.05$  6.06$
  Q  0.6645  10.9$  4.17$  11.36$
  Q  0.6645  11.57$  5.62$  11.48$
  Q  -1.3290  11.1$  4.98$  11.08$
  Q  0.6645  2.14$  17.09$  11.9$
  Q  0.6645  3.47$  16.33$  11.97$
  Q  -1.3290  2.64$  16.42$  12.03$
  Q  0.6645  6.55$  2.94$  15.3$
  Q  0.6645  7.83$  2.68$  14.58$
  Q  -1.3290  7.36$  2.79$  15.26$
  Q  0.6645  -0.46$  12.87$  8.49$
  Q  0.6645  0.78$  13.87$  8.41$
  Q  -1.3290  0.35$  13.14$  8.59$
  Q  0.6645  16.65$  3.63$  3.27$
  Q  0.6645  17.83$  3.89$  4.3$
  Q  -1.3290  17.03$  3.88$  4.01$
  Q  0.6645  19.83$  16.87$  9.66$
  Q  0.6645  20.34$  15.69$  10.24$
  Q  -1.3290  19.82$  16.09$  9.73$
  Q  0.6645  13.63$  11.03$  4.32$
  Q  0.6645  14.76$  10.99$  3.34$
  Q  -1.3290  14.13$  10.65$  3.76$
  Q  0.6645  6.86$  13.02$  1.99$
  Q  0.6645  8.37$  13.12$  1.73$
  Q  -1.3290  7.68$  12.74$  2.01$
  Q  0.6645  9.63$  14.33$  0.79$
  Q  0.6645  10.45$  14.36$  2.22$
  Q  -1.3290  9.78$  14.5$  1.65$
  Q  0.6645  15.82$  19.06$  9.26$
  Q  0.6645  15.51$  19.43$  7.81$
  Q  -1.3290  15.42$  18.98$  8.53$
  Q  0.6645  18.68$  13.39$  16.72$
  Q  0.6645  19.17$  12.04$  17.13$
  Q  -1.3290  18.93$  12.82$  17.3$
  Q  0.6645  11.14$  12.14$  17.39$
  Q  0.6645  11.65$  13.32$  18.36$
  Q  -1.3290  11.56$  12.5$  18.07$
  Q  0.6645  13.65$  15.89$  18.45$
  Q  0.6645  14.63$  14.6$  18.06$
  Q  -1.3290  14.14$  15.14$  18.58$
  Q  0.6645  4.57$  16.15$  4.05$
  Q  0.6645  4.35$  17.26$  5.11$
  Q  -1.3290  4.32$  16.48$  4.8$
  Q  0.6645  8.94$  4.49$  4.45$
  Q  0.6645  8.52$  5.05$  5.86$
  Q  -1.3290  8.7$  5.07$  5.04$
  Q  0.6645  2.06$  7.78$  9.6$
  Q  0.6645  1.74$  9.25$  9.63$
  Q  -1.3290  1.77$  8.47$  9.94$
  Q  0.6645  3.79$  12.07$  15.48$
  Q  0.6645  5.15$  12.49$  14.94$
  Q  -1.3290  4.31$  12.53$  14.98$
  Q  0.6645  10.81$  15$  19.74$
  Q  0.6645  10.05$  16.19$  19.1$
  Q  -1.3290  10.73$  15.7$  19.28$
  Q  0.6645  18.41$  3.5$  7.79$
  Q  0.6645  19.5$  3.08$  8.73$
  Q  -1.3290  18.97$  2.98$  8.1$
  Q  0.6645  8.07$  3.98$  18.53$
  Q  0.6645  8.24$  3.87$  17$
  Q  -1.3290  8.38$  4.19$  17.78$
  Q  0.6645  14.06$  2.68$  12.21$
  Q  0.6645  13.8$  2.89$  13.66$
  Q  -1.3290  13.91$  2.41$  12.99$
  Q  0.6645  4.35$  9.18$  19.69$
  Q  0.6645  5.4$  8.23$  19.34$
  Q  -1.3290  4.64$  8.44$  19.53$
  Q  0.6645  0.96$  10.02$  7.69$
  Q  0.6645  1.41$  11.43$  8.35$
  Q  -1.3290  1.31$  10.56$  8.29$
  Q  0.6645  3.43$  9.82$  14.06$
  Q  0.6645  4.28$  9.95$  15.43$
  Q  -1.3290  3.66$  9.66$  14.88$
  Q  0.6645  13.41$  12.2$  17.45$
  Q  0.6645  13.92$  10.8$  17.12$
  Q  -1.3290  13.84$  11.64$  17.02$
  Q  0.6645  1.77$  13.94$  5.46$
  Q  0.6645  2.99$  14.93$  5.21$
  Q  -1.3290  2.56$  14.24$  5.54$
  Q  0.6645  9.48$  8.01$  19.06$
  Q  0.6645  9.32$  7.33$  20.5$
  Q  -1.3290  9.14$  7.5$  19.66$
  Q  0.6645  1.74$  5.02$  12.37$
  Q  0.6645  1.64$  6.47$  12.24$
  Q  -1.3290  2.04$  5.78$  12.37$
  Q  0.6645  6.05$  18.04$  11.07$
  Q  0.6645  7$  19.09$  10.51$
  Q  -1.3290  6.24$  18.77$  10.77$
  Q  0.6645  18.7$  6.57$  2.56$
  Q  0.6645  17.71$  6.72$  3.78$
  Q  -1.3290  17.96$  6.71$  2.97$
  Q  0.6645  4.35$  14.17$  16.05$
  Q  0.6645  3.93$  14.99$  17.21$
  Q  -1.3290  4.07$  14.87$  16.4$
  Q  0.6645  5.32$  3.48$  13.83$
  Q  0.6645  4.74$  2.03$  14.21$
  Q  -1.3290  4.85$  2.92$  14.27$
  Q  0.6645  16.5$  16.57$  10.38$
  Q  0.6645  15.7$  16.51$  11.69$
  Q  -1.3290  16.4$  16.57$  11.22$
  Q  0.6645  9.74$  20.47$  15.19$
  Q  0.6645  10.7$  20.16$  14.01$
  Q  -1.3290  10.45$  20.22$  14.81$
  Q  0.6645  19.98$  10.39$  15.94$
  Q  0.6645  20.38$  10.4$  14.46$
  Q  -1.3290  20.05$  10.72$  15.18$
  Q  0.6645  4.77$  12.1$  8.96$
  Q  0.6645  4.37$  10.72$  8.66$
  Q  -1.3290  4.85$  11.36$  8.56$
  Q  0.6645  12.76$  12.34$  20.03$
  Q  0.6645  13.52$  13.62$  20.08$
  Q  -1.3290  13.11$  13.01$  20.42$
  Q  0.6645  18.29$  12.12$  4.27$
  Q  0.6645  19.21$  11.83$  3.03$
  Q  -1.3290  18.59$  12.22$  3.47$
  Q  0.6645  15.21$  13.48$  13.36$
  Q  0.6645  16.61$  13.86$  13.3$
  Q  -1.3290  15.89$  13.68$  13.7$
  Q  0.6645  17.39$  7.4$  14.08$
  Q  0.6645  17.63$  8.8$  14.68$
  Q  -1.3290  17.81$  8.11$  14.23$
  Q  0.6645  13.96$  7.02$  3.23$
  Q  0.6645  14.08$  8.53$  2.87$
  Q  -1.3290  13.77$  7.72$  2.79$
  Q  0.6645  5.47$  5.61$  3.95$
  Q  0.6645  6.78$  5.06$  4.35$
  Q  -1.3290  6$  5.01$  4.06$
  Q  0.6645  12.02$  19.11$  3.99$
  Q  0.6645  12.5$  17.68$  3.81$
  Q  -1.3290  12.28$  18.35$  4.25$
  Q  0.6645  17.19$  13.1$  6.14$
  Q  0.6645  18.44$  12.36$  6.52$
  Q  -1.3290  17.73$  12.46$  6.1$
  Q  0.6645  4.6$  11.65$  4.66$
  Q  0.6645  3.8$  12.91$  5.02$
  Q  -1.3290  4.49$  12.46$  4.83$
  Q  0.6645  22.05$  5.76$  9.04$
  Q  0.6645  20.85$  6.63$  9.47$
  Q  -1.3290  21.24$  5.93$  9.21$
  Q  0.6645  2.16$  12.57$  12.18$
  Q  0.6645  3.46$  12.68$  13.1$
  Q  -1.3290  3$  12.51$  12.39$
  Q  0.6645  4.1$  5.68$  11.06$
  Q  0.6645  5.35$  6.36$  10.83$
  Q  -1.3290  4.8$  5.81$  10.66$
  Q  0.6645  16.37$  3.77$  16.74$
  Q  0.6645  16.19$  2.8$  15.54$
  Q  -1.3290  16.2$  3.55$  15.94$
  Q  0.6645  9.51$  10.55$  2.99$
  Q  0.6645  10$  9.14$  3.35$
  Q  -1.3290  10.09$  9.95$  3.14$
  Q  0.6645  16.5$  7.15$  19.06$
  Q  0.6645  15.81$  7.53$  20.43$
  Q  -1.3290  16.4$  7.55$  19.82$
  Q  0.6645  9.89$  12.84$  20.58$
  Q  0.6645  11.27$  13.44$  21.04$
  Q  -1.3290  10.45$  13.42$  20.83$
  Q  0.6645  7.85$  11.68$  6.59$
  Q  0.6645  8.22$  12.4$  5.35$
  Q  -1.3290  8.21$  11.73$  5.85$
  Q  0.6645  6.35$  20.64$  13.39$
  Q  0.6645  6.34$  20.18$  11.96$
  Q  -1.3290  6.48$  20.73$  12.57$
  Q  0.6645  15.48$  14.42$  5.78$
  Q  0.6645  15.8$  15.38$  4.55$
  Q  -1.3290  15.99$  14.9$  5.26$
  Q  0.6645  18.67$  9.77$  17.76$
  Q  0.6645  20.02$  9.27$  18.31$
  Q  -1.3290  19.49$  9.83$  17.97$
  Q  0.6645  10.82$  7.18$  3.72$
  Q  0.6645  11.87$  7.58$  2.7$
  Q  -1.3290  11.11$  7.33$  2.95$
  Q  0.6645  12.25$  2.87$  15.54$
  Q  0.6645  13.72$  3.31$  16.03$
  Q  -1.3290  12.97$  3.37$  15.59$
  Q  0.6645  5.99$  9.53$  17.18$
  Q  0.6645  6.25$  11.06$  17.31$
  Q  -1.3290  5.9$  10.35$  16.96$
  Q  0.6645  16.09$  1.22$  10.06$
  Q  0.6645  14.95$  0.53$  9.3$
  Q  -1.3290  15.77$  0.7$  9.48$
  Q  0.6645  21.72$  10.43$  10.47$
  Q  0.6645  21.64$  10.03$  11.91$
  Q  -1.3290  21.3$  10.22$  11.16$
  Q  0.6645  16.97$  16.86$  5.81$
  Q  0.6645  17.13$  18.27$  5.3$
  Q  -1.3290  17.2$  17.65$  5.85$
  Q  0.6645  17.67$  15.28$  12.17$
  Q  0.6645  18.74$  14.17$  11.98$
  Q  -1.3290  18.23$  14.66$  12.41$
  Q  0.6645  10.54$  9.55$  17.55$
  Q  0.6645  11.23$  9.38$  18.92$
  Q  -1.3290  10.59$  9.3$  18.34$
  Q  0.6645  6.64$  14.49$  6.41$
  Q  0.6645  6.05$  13.57$  5.32$
  Q  -1.3290  6.66$  14.04$  5.72$
  Q  0.6645  6.52$  7.28$  17.21$
  Q  0.6645  7.44$  7.76$  18.49$
  Q  -1.3290  6.76$  7.7$  17.94$
  Q  0.6645  8.4$  14.83$  15.93$
  Q  0.6645  8.71$  13.58$  15.51$
  Q  -1.3290  8.82$  14.16$  16$
  Q  0.6645  4.82$  10.49$  6.6$
  Q  0.6645  5.76$  9.9$  5.63$
  Q  -1.3290  5$  9.97$  5.99$
  Q  0.6645  11.26$  10.07$  1.23$
  Q  0.6645  12.7$  10.19$  1.77$
  Q  -1.3290  12.07$  10.24$  1.16$
  Q  0.6645  15.39$  6.52$  8.05$
  Q  0.6645  14.92$  7.54$  6.98$
  Q  -1.3290  14.96$  6.79$  7.4$
  Q  0.6645  16.6$  11.26$  7.81$
  Q  0.6645  15.47$  10.34$  7.3$
  Q  -1.3290  15.83$  10.95$  7.8$
  Q  0.6645  3.12$  10.65$  12$
  Q  0.6645  2.65$  9.21$  11.67$
  Q  -1.3290  3.23$  9.81$  11.97$
  Q  0.6645  16.19$  10.93$  19.75$
  Q  0.6645  15.89$  9.39$  19.56$
  Q  -1.3290  15.79$  10.24$  19.42$
  Q  0.6645  8.37$  10.99$  20.53$
  Q  0.6645  9.33$  10.81$  19.31$
  Q  -1.3290  8.88$  11.23$  19.89$
  Q  0.6645  8.41$  17.61$  18.63$
  Q  0.6645  7.8$  16.49$  17.72$
  Q  -1.3290  8.04$  16.85$  18.44$
  Q  0.6645  7.74$  13.11$  17.36$
  Q  0.6645  7.93$  12.19$  18.46$
  Q  -1.3290  7.48$  12.55$  17.86$
  Q  0.6645  14.23$  13.39$  9.24$
  Q  0.6645  15.07$  12.53$  10.14$
  Q  -1.3290  14.7$  13.24$  9.92$
  Q  0.6645  14.44$  2.5$  5.21$
  Q  0.6645  15.31$  3.62$  5.18$
  Q  -1.3290  14.61$  3.26$  5.33$
  Q  0.6645  5.54$  5.1$  17.44$
  Q  0.6645  4.49$  5.31$  18.64$
  Q  -1.3290  5.17$  4.96$  18.24$
  Q  0.6645  17.42$  5.53$  17.8$
  Q  0.6645  15.95$  5.87$  17.15$
  Q  -1.3290  16.55$  5.75$  17.78$
  Q  0.6645  5.02$  15.84$  6.62$
  Q  0.6645  4.62$  15.44$  8.03$
  Q  -1.3290  5.17$  15.61$  7.41$
  Q  0.6645  9.8$  18.77$  7.22$
  Q  0.6645  10.45$  17.98$  8.33$
  Q  -1.3290  10.15$  18.68$  7.97$
  Q  0.6645  11.7$  3.92$  9.37$
  Q  0.6645  10.93$  2.97$  8.56$
  Q  -1.3290  11.6$  3.32$  8.83$
  Q  0.6645  14.86$  3.41$  7.31$
  Q  0.6645  15.76$  2.38$  7.92$
  Q  -1.3290  15.35$  3.14$  7.91$
  Q  0.6645  6.54$  20.38$  15.78$
  Q  0.6645  5.19$  20.88$  15.56$
  Q  -1.3290  5.76$  20.3$  15.47$
  Q  0.6645  13.81$  16.32$  12.79$
  Q  0.6645  13.74$  17.78$  12.2$
  Q  -1.3290  13.77$  16.94$  12.16$
  Q  0.6645  17.63$  5.81$  8.78$
  Q  0.6645  16.75$  4.53$  8.37$
  Q  -1.3290  17.3$  5.22$  8.26$
  Q  0.6645  8.39$  5.55$  13.97$
  Q  0.6645  7.4$  6.5$  13.2$
  Q  -1.3290  7.87$  6.24$  13.88$
  Q  0.6645  16.64$  4.54$  14.22$
  Q  0.6645  18.09$  4.94$  13.69$
  Q  -1.3290  17.24$  5.03$  13.8$
  Q  0.6645  9.33$  19.96$  10.91$
  Q  0.6645  9.25$  19.49$  9.46$
  Q  -1.3290  8.97$  19.81$  10.16$
  Q  0.6645  18.44$  7.2$  6.32$
  Q  0.6645  17.71$  5.86$  6.28$
  Q  -1.3290  18.23$  6.46$  5.96$
  Q  0.6645  7.69$  -0.09$  7.4$
  Q  0.6645  8$  -0.58$  8.9$
  Q  -1.3290  7.72$  -0.07$  8.29$
  Q  0.6645  16.71$  3.16$  11.19$
  Q  0.6645  18.1$  2.49$  10.66$
  Q  -1.3290  17.39$  2.59$  11.16$
  Q  0.6645  8.15$  15.19$  2.76$
  Q  0.6645  7.49$  15.02$  4.16$
  Q  -1.3290  7.57$  15.36$  3.39$
  Q  0.6645  19.96$  8.79$  10.27$
  Q  0.6645  18.92$  7.75$  10.39$
  Q  -1.3290  19.52$  8.15$  9.99$
  Q  0.6645  13.68$  7.42$  22.5$
  Q  0.6645  13.43$  7.6$  21$
  Q  -1.3290  13.87$  7.47$  21.69$
  Q  0.6645  11.13$  0.31$  15.83$
  Q  0.6645  10.74$  1.48$  16.8$
  Q  -1.3290  11.08$  1.14$  16.11$
  Q  0.6645  16.73$  8.18$  1.29$
  Q  0.6645  15.39$  8.42$  0.69$
  Q  -1.3290  16.09$  8.66$  1$
  Q  0.6645  12.55$  10.05$  21.09$
  Q  0.6645  13.42$  10.26$  19.97$
  Q  -1.3290  12.75$  9.95$  20.29$
  Q  0.6645  4.99$  4.09$  7.59$
  Q  0.6645  5.26$  5.17$  8.61$
  Q  -1.3290  5.4$  4.73$  7.91$
  Q  0.6645  8.89$  7.54$  8.21$
  Q  0.6645  7.83$  8.11$  7.26$
  Q  -1.3290  8.5$  8.17$  7.78$
  Q  0.6645  12.81$  1.17$  8.06$
  Q  0.6645  12.77$  -0.31$  8.38$
  Q  -1.3290  13.07$  0.39$  8.03$
  Q  0.6645  19.25$  11.1$  8.17$
  Q  0.6645  19.29$  12.34$  9.17$
  Q  -1.3290  19.36$  11.94$  8.38$
  Q  0.6645  11.68$  19.96$  11.81$
  Q  0.6645  10.66$  18.9$  12.34$
  Q  -1.3290  10.95$  19.66$  12.08$
  Q  0.6645  9.08$  1.96$  12.46$
  Q  0.6645  8.07$  0.82$  12.62$
  Q  -1.3290  8.33$  1.6$  12.59$
  Q  0.6645  19.59$  7.55$  14.26$
  Q  0.6645  20.56$  6.5$  13.73$
  Q  -1.3290  20.35$  7.17$  14.18$
  Q  0.6645  4.95$  2.07$  8.3$
  Q  0.6645  4.8$  1.91$  6.71$
  Q  -1.3290  4.6$  2.19$  7.52$
  Q  0.6645  13.16$  4.61$  2.89$
  Q  0.6645  12.84$  5.02$  1.47$
  Q  -1.3290  13.35$  4.78$  2.1$
  Q  0.6645  7.21$  4.26$  7.85$
  Q  0.6645  8.66$  3.58$  7.48$
  Q  -1.3290  8.08$  4.23$  7.62$
  Q  0.6645  2.84$  6.52$  16.72$
  Q  0.6645  2.96$  7.3$  18.11$
  Q  -1.3290  2.83$  6.62$  17.58$
  Q  0.6645  3.5$  7.7$  14.81$
  Q  0.6645  2.94$  6.4$  14.15$
  Q  -1.3290  3.24$  6.89$  14.77$
  Q  0.6645  21.49$  14.85$  12.21$
  Q  0.6645  22.67$  15.66$  11.63$
  Q  -1.3290  21.85$  15.44$  11.73$
  Q  0.6645  17.77$  15.54$  8.91$
  Q  0.6645  16.6$  14.7$  9.36$
  Q  -1.3290  16.99$  15.26$  8.87$
  Q  0.6645  11.47$  7.22$  19.05$
  Q  0.6645  12.37$  6.02$  18.76$
  Q  -1.3290  12.17$  6.75$  19.15$
  Q  0.6645  9.38$  8.35$  5.77$
  Q  0.6645  8.79$  7.16$  4.99$
  Q  -1.3290  9.22$  7.88$  5.11$
  Q  0.6645  13.56$  5.81$  15.87$
  Q  0.6645  13.81$  7.24$  16.52$
  Q  -1.3290  14.03$  6.45$  16.17$
  Q  0.6645  20.34$  6.07$  6.05$
  Q  0.6645  21.32$  5.84$  7.2$
  Q  -1.3290  21.1$  6.06$  6.42$
  Q  0.6645  10.48$  6.96$  15.94$
  Q  0.6645  9.48$  7.18$  14.73$
  Q  -1.3290  10.12$  7.36$  15.27$
  Q  0.6645  12.64$  14.16$  2.62$
  Q  0.6645  12.23$  14.71$  4.02$
  Q  -1.3290  12.11$  14.44$  3.23$
  Q  0.6645  19.68$  11.59$  11.19$
  Q  0.6645  18.21$  11.76$  11.12$
  Q  -1.3290  19$  12.06$  11.05$
  Q  0.6645  10.88$  16.74$  15.7$
  Q  0.6645  10.57$  18.23$  15.25$
  Q  -1.3290  10.39$  17.41$  15.42$
  Q  0.6645  13.92$  18.15$  15.69$
  Q  0.6645  14.77$  19.3$  16.48$
  Q  -1.3290  14.17$  18.68$  16.33$
  Q  0.6645  14.72$  13.11$  2.04$
  Q  0.6645  13.72$  13.33$  0.9$
  Q  -1.3290  14.04$  13.44$  1.68$
  Q  0.6645  21.14$  2.88$  10.53$
  Q  0.6645  20.39$  4.24$  9.95$
  Q  -1.3290  20.49$  3.47$  10.41$
  Q  0.6645  6.73$  3.15$  11.92$
  Q  0.6645  5.81$  4.35$  11.73$
  Q  -1.3290  6.3$  3.82$  12.13$
  Q  0.6645  16.32$  10.87$  1.51$
  Q  0.6645  17.08$  12.02$  2.42$
  Q  -1.3290  16.46$  11.64$  1.92$
  Q  0.6645  11.55$  15.37$  17.42$
  Q  0.6645  10.86$  14.68$  16.37$
  Q  -1.3290  11.49$  15.1$  16.62$
  Q  0.6645  5.68$  8.43$  1.59$
  Q  0.6645  6.16$  9.49$  2.91$
  Q  -1.3290  5.64$  9.09$  2.27$
  Q  0.6645  11.11$  3.25$  5.26$
  Q  0.6645  11.88$  1.84$  5.07$
  Q  -1.3290  11.22$  2.39$  5.24$
  Q  0.6645  13.97$  20.3$  13.22$
  Q  0.6645  14.77$  19.72$  11.9$
  Q  -1.3290  14.11$  19.83$  12.46$
  Q  0.6645  7.71$  5.96$  19.73$
  Q  0.6645  6.49$  5.29$  19.72$
  Q  -1.3290  7.15$  5.54$  20.11$
  Q  0.6645  11.98$  19.56$  8.73$
  Q  0.6645  13.41$  19.57$  8.97$
  Q  -1.3290  12.65$  19.77$  9.15$
  Q  0.6645  10.12$  6.85$  1.13$
  Q  0.6645  8.62$  6.64$  0.77$
  Q  -1.3290  9.47$  6.59$  0.65$
  Q  0.6645  6.08$  18.91$  5.32$
  Q  0.6645  5.34$  18.93$  6.81$
  Q  -1.3290  5.43$  18.96$  5.92$
  Q  0.6645  10.64$  2.7$  13.52$
  Q  0.6645  11.81$  2.03$  12.71$
  Q  -1.3290  11.07$  2.42$  12.83$
  Q  0.6645  17.89$  15.34$  15.63$
  Q  0.6645  18.5$  14.46$  14.55$
  Q  -1.3290  18.47$  14.87$  15.31$
  Q  0.6645  11.59$  11.11$  4.19$
  Q  0.6645  11.72$  12.67$  4.34$
  Q  -1.3290  11.9$  11.87$  4.51$
  Q  0.6645  6.13$  20.86$  8.3$
  Q  0.6645  5.33$  19.81$  9.16$
  Q  -1.3290  5.49$  20.3$  8.51$
  Q  0.6645  17.36$  19.66$  10.72$
  Q  0.6645  16.75$  18.39$  11.31$
  Q  -1.3290  16.8$  19.25$  11.17$
  Q  0.6645  4.99$  16.39$  15.19$
  Q  0.6645  5.28$  17.86$  14.73$
  Q  -1.3290  5.37$  16.99$  14.76$
  Q  0.6645  2.55$  15.92$  8.53$
  Q  0.6645  2.79$  14.71$  7.54$
  Q  -1.3290  2.7$  15.08$  8.29$
  Q  0.6645  6.38$  6.51$  6.4$
  Q  0.6645  5.72$  7.77$  6.08$
  Q  -1.3290  6.35$  7.27$  6.09$
  Q  0.6645  2.38$  15.09$  14.98$
  Q  0.6645  1.76$  15.48$  13.69$
  Q  -1.3290  1.75$  15.11$  14.43$
  Q  0.6645  6.94$  16.76$  15.33$
  Q  0.6645  8.56$  16.84$  15.48$
  Q  -1.3290  7.73$  16.6$  15.68$
  Q  0.6645  9.85$  1.86$  6.84$
  Q  0.6645  8.95$  1.45$  8.07$
  Q  -1.3290  9.4$  1.99$  7.56$
  Q  0.6645  10.83$  5.06$  13.77$
  Q  0.6645  10.33$  4.86$  15.07$
  Q  -1.3290  10.25$  4.79$  14.29$
  Q  0.6645  15.92$  5.93$  4.29$
  Q  0.6645  15.07$  6.46$  5.37$
  Q  -1.3290  15.23$  6.27$  4.6$
  Q  0.6645  11.53$  4.74$  17.16$
  Q  0.6645  10.1$  5.14$  17.29$
  Q  -1.3290  10.86$  5.22$  17$
  Q  0.6645  1.08$  9.64$  14.15$
  Q  0.6645  0.06$  8.47$  13.71$
  Q  -1.3290  0.44$  9.27$  13.7$
  Q  0.6645  2.5$  8.11$  6.04$
  Q  0.6645  3.14$  7.21$  4.88$
  Q  -1.3290  2.84$  7.41$  5.69$
  Q  0.6645  13.15$  15.73$  14.93$
  Q  0.6645  14.52$  16.41$  15.01$
  Q  -1.3290  13.71$  16.32$  14.73$
  Q  0.6645  16.88$  17.5$  14.67$
  Q  0.6645  16.64$  17.11$  16.2$
  Q  -1.3290  16.55$  17.06$  15.32$
  Q  0.6645  2.26$  5.05$  8.87$
  Q  0.6645  2.48$  6.15$  7.78$
  Q  -1.3290  2.16$  5.81$  8.5$
  Q  0.6645  1.78$  11.54$  17.52$
  Q  0.6645  2.64$  10.55$  16.84$
  Q  -1.3290  2.47$  11.3$  17.12$
  Q  0.6645  19.9$  9.2$  6.87$
  Q  0.6645  19.3$  8.65$  8.13$
  Q  -1.3290  19.26$  9.03$  7.38$
  Q  0.6645  14.81$  17.4$  7.88$
  Q  0.6645  14.92$  15.83$  7.73$
  Q  -1.3290  14.53$  16.57$  7.73$
  Q  0.6645  4.86$  14.42$  1.91$
  Q  0.6645  4.62$  13.38$  2.98$
  Q  -1.3290  4.78$  13.64$  2.22$
  Q  0.6645  13.01$  4.35$  4.86$
  Q  0.6645  12.2$  5.55$  5.41$
  Q  -1.3290  12.35$  4.88$  4.93$
  Q  0.6645  6.57$  5.74$  15.18$
  Q  0.6645  5.07$  5.97$  15.4$
  Q  -1.3290  5.87$  5.88$  15.65$
  Q  0.6645  7.5$  10.44$  4.35$
  Q  0.6645  7.86$  9.02$  4.34$
  Q  -1.3290  7.32$  9.64$  4.29$
  Q  0.6645  5.3$  12.88$  18.11$
  Q  0.6645  3.88$  12.33$  18.01$
  Q  -1.3290  4.51$  12.8$  18.35$
  Q  0.6645  -0.17$  12.52$  12.22$
  Q  0.6645  0.36$  12.76$  10.71$
  Q  -1.3290  0.41$  12.51$  11.54$
  Q  0.6645  12.99$  6.05$  7.38$
  Q  0.6645  12.32$  4.79$  7.72$
  Q  -1.3290  12.32$  5.59$  7.5$
  Q  0.6645  8.5$  20.29$  5.26$
  Q  0.6645  8.65$  19.51$  3.9$
  Q  -1.3290  8.8$  19.71$  4.74$
*
