! NoMOPrint PrintBasis #MINIPRINT SMALLPRINT LARGEPRINT
! ALLPOP XYZFILE
#! BP86 3-21G   TightSCF
! ENGRAD
! B3LYP NormalPNO PModel #DecontractAux
#! VerySlowConv 
 %maxcore 5000
 %scf  maxiter   500  end 

%pal
    nprocs 32
end

%basis
    NewGTO O    # New basis for oxygen
        "aug-cc-pVTZ"
    end
    NewGTO C    # New basis for carbon
        "aug-cc-pVTZ"
    end
    NewGTO H    # New basis for hydrogen
        "cc-pVTZ"
    end
end

* xyz 0   1
  C  11.04  10.58  12.35  #1
  H  10.01  10.59  12.5  #2
  H  11.36  11.53  12.81  #3
  C  11.41  10.51  10.89  #4
  H  12.39  10.89  10.8  #5
  H  11.51  9.45  10.6  #6
  C  10.32  11.3  10.01  #7
  H  10.16  12.36  10.34  #8
  H  9.41  10.81  10.2  #9
  C  10.69  11.45  8.58  #10
  H  11.55  12.12  8.47  #11
  H  9.94  11.94  7.96  #12
  O  11.13  10.24  7.92  #13
  H  10.43  9.62  7.71  #14
  O  11.71  9.53  13.15  #15
  H  11.61  9.68  14.09  #16
  O  8.73  8.41  7.96  #17
  H  9.07  7.66  7.43  #18
  H  8.26  9.05  7.45  #19
  O  12.48  6.92  13.27  #20
  H  12.27  7.84  13.03  #21
  H  12.75  6.44  12.51  #22
  O  13.46  9.37  8.77  #23
  H  12.77  9.91  8.32  #24
  H  14.04  9.9  9.32  #25
  O  14.35  11.11  13.54  #26
  H  14.9  11.66  12.98  #27
  H  14.09  10.4  12.99  #28
  O  8.85  13.79  11.73  #29
  H  8.6  13.61  12.6  #30
  H  8.37  14.6  11.48  #31
  O  13.67  13.12  10.4  #32
  H  12.78  13.35  10.32  #33
  H  14.06  13.45  11.22  #34
  O  12.86  6.66  8.37  #35
  H  13.28  7.49  8.8  #36
  H  13.41  6.22  7.7  #37
  O  8.34  13.35  5.9  #38
  H  8.13  12.48  6.24  #39
  H  9.24  13.45  5.63  #40
  O  12.36  11.19  15.87  #41
  H  13.06  11.29  15.19  #42
  H  12.7  10.4  16.37  #43
  O  6.51  12.57  10.13  #44
  H  5.72  12.86  10.49  #45
  H  7.18  13.13  10.57  #46
  O  10.34  5.82  14.55  #47
  H  10.47  5.53  15.43  #48
  H  11.16  6.2  14.16  #49
  O  15.92  8.08  8.73  #50
  H  15.07  8.54  8.73  #51
  H  16.54  8.72  9.11  #52
  O  12.38  12.05  5.24  #53
  H  12.97  12.45  4.62  #54
  H  12.93  11.86  6.01  #55
  O  11.32  14.69  9.96  #56
  H  11.03  14.92  9.06  #57
  H  10.5  14.58  10.42  #58
  O  9.34  7.1  10.39  #59
  H  8.97  6.27  10.17  #60
  H  9.5  7.59  9.54  #61
  O  13.92  6.54  15.71  #62
  H  13.97  7.35  16.25  #63
  H  13.44  6.86  14.89  #64
  O  15.2  10.95  10.08  #65
  H  14.74  11.77  10.17  #66
  H  16.11  11.19  10.1  #67
  O  15.37  13.52  12.53  #68
  H  16.03  14.11  12.21  #69
  H  15.27  13.85  13.43  #70
  O  11.87  5.49  10.68  #71
  H  11.24  6.2  10.78  #72
  H  12.45  5.77  9.92  #73
  O  7.84  16  10.65  #74
  H  8.39  16.68  10.99  #75
  H  8.12  15.87  9.69  #76
  O  7.89  13.96  14.21  #77
  H  8.26  13.17  14.66  #78
  H  6.98  13.98  14.49  #79
  O  10.39  6.45  7.11  #80
  H  11.18  6.83  7.52  #81
  H  10.69  6.23  6.21  #82
  O  12.9  15.86  11.74  #83
  H  13.86  15.96  11.43  #84
  H  12.41  15.46  10.97  #85
  O  14.91  11.62  6.85  #86
  H  14.81  11.14  7.7  #87
  H  14.89  12.61  7.04  #88
  O  7.27  10.54  6.48  #89
  H  7.19  10.26  5.55  #90
  H  6.46  10.96  6.73  #91
  O  5.31  7.69  7.27  #92
  H  6.2  7.78  7.6  #93
  H  4.83  7.2  7.93  #94
  Q  0.6645  8.47$  16.68$  13.47$
  Q  0.6645  8.33$  15.69$  14.57$
  Q  -1.3290  8.47$  16.44$  14.26$
  Q  0.6645  0.43$  12.54$  6.23$
  Q  0.6645  1.2$  13.79$  6.95$
  Q  -1.3290  0.53$  13.38$  6.56$
  Q  0.6645  2.42$  3.39$  5.04$
  Q  0.6645  4$  3.95$  5.09$
  Q  -1.3290  3.22$  3.69$  4.76$
  Q  0.6645  15.47$  7.51$  4.8$
  Q  0.6645  15.54$  9.07$  4.75$
  Q  -1.3290  15.38$  8.3$  4.47$
  Q  0.6645  5.27$  8.76$  1.31$
  Q  0.6645  5.34$  10.28$  1.06$
  Q  -1.3290  5.39$  9.47$  0.86$
  Q  0.6645  7.69$  20.06$  6.25$
  Q  0.6645  8.72$  20.49$  7.34$
  Q  -1.3290  8.35$  20.49$  6.57$
  Q  0.6645  0.99$  12.32$  9.98$
  Q  0.6645  1.36$  11.25$  10.96$
  Q  -1.3290  1.51$  11.78$  10.31$
  Q  0.6645  19.35$  8.34$  14.18$
  Q  0.6645  20.13$  9.56$  14.48$
  Q  -1.3290  19.62$  9.09$  14$
  Q  0.6645  16.02$  12.4$  4.17$
  Q  0.6645  14.97$  13.59$  3.82$
  Q  -1.3290  15.69$  13.23$  4.15$
  Q  0.6645  14.62$  0.79$  15.11$
  Q  0.6645  13.48$  1.68$  15.91$
  Q  -1.3290  14.09$  1.48$  15.31$
  Q  0.6645  16.39$  10.11$  0.96$
  Q  0.6645  16.94$  11.57$  0.5$
  Q  -1.3290  16.45$  10.84$  0.46$
  Q  0.6645  7.43$  2.24$  14.24$
  Q  0.6645  8.39$  3.19$  13.71$
  Q  -1.3290  7.81$  2.94$  14.24$
  Q  0.6645  17.33$  14.22$  8.8$
  Q  0.6645  18.82$  14.33$  8.38$
  Q  -1.3290  18.08$  13.94$  8.47$
  Q  0.6645  0.13$  9.17$  12.78$
  Q  0.6645  1.45$  9.01$  12.11$
  Q  -1.3290  0.67$  9.29$  12.18$
  Q  0.6645  17.92$  3.84$  11.5$
  Q  0.6645  17.55$  5.31$  11.54$
  Q  -1.3290  17.8$  4.6$  11.19$
  Q  0.6645  14.55$  13.05$  15.46$
  Q  0.6645  13.78$  14.39$  15.26$
  Q  -1.3290  14.42$  13.85$  15.16$
  Q  0.6645  3.45$  14.41$  2.72$
  Q  0.6645  3.49$  14.29$  4.21$
  Q  -1.3290  3.13$  14.19$  3.46$
  Q  0.6645  1.91$  4.96$  6.25$
  Q  0.6645  3.31$  5.39$  6.57$
  Q  -1.3290  2.49$  5.5$  6.5$
  Q  0.6645  3.97$  9.25$  17.86$
  Q  0.6645  2.54$  8.63$  18.05$
  Q  -1.3290  3.16$  9.25$  18.11$
  Q  0.6645  6.34$  15.75$  19.36$
  Q  0.6645  5.94$  14.37$  18.9$
  Q  -1.3290  5.81$  15.11$  19.26$
  Q  0.6645  8.3$  17.32$  5.75$
  Q  0.6645  9.56$  18$  5.38$
  Q  -1.3290  8.9$  17.52$  5.23$
  Q  0.6645  6$  12.66$  7.91$
  Q  0.6645  5.28$  13.3$  6.69$
  Q  -1.3290  5.55$  12.68$  7.19$
  Q  0.6645  6.21$  10.72$  11.2$
  Q  0.6645  6.64$  9.24$  11.51$
  Q  -1.3290  6.1$  9.9$  11.47$
  Q  0.6645  9.14$  10.62$  2.29$
  Q  0.6645  8.41$  11.28$  1.12$
  Q  -1.3290  8.48$  10.78$  1.81$
  Q  0.6645  18.51$  14.62$  12.3$
  Q  0.6645  18.22$  13.15$  11.86$
  Q  -1.3290  18.38$  13.98$  11.75$
  Q  0.6645  7.54$  8.71$  0.81$
  Q  0.6645  8.28$  7.49$  1.36$
  Q  -1.3290  7.97$  7.99$  0.76$
  Q  0.6645  12.52$  3.75$  19.52$
  Q  0.6645  12.61$  2.93$  18.29$
  Q  -1.3290  12.53$  3.04$  19.08$
  Q  0.6645  3.89$  11.49$  6.51$
  Q  0.6645  3.12$  11.02$  5.26$
  Q  -1.3290  3.34$  11.01$  6.08$
  Q  0.6645  13.93$  13.59$  21.88$
  Q  0.6645  14.97$  12.59$  22.13$
  Q  -1.3290  14.56$  13.14$  21.65$
  Q  0.6645  14.49$  4.06$  8.32$
  Q  0.6645  14.58$  4.71$  7$
  Q  -1.3290  14.16$  4.31$  7.59$
  Q  0.6645  14.59$  3.6$  20.84$
  Q  0.6645  15.84$  3.9$  19.96$
  Q  -1.3290  15.02$  4.03$  20.26$
  Q  0.6645  13.08$  10.15$  1.93$
  Q  0.6645  12.96$  10.79$  0.53$
  Q  -1.3290  13.15$  10.79$  1.35$
  Q  0.6645  4.94$  18.75$  15.67$
  Q  0.6645  6.31$  17.96$  15.82$
  Q  -1.3290  5.45$  18.09$  15.71$
  Q  0.6645  6.06$  19.31$  12.12$
  Q  0.6645  6.88$  19.6$  13.35$
  Q  -1.3290  6.37$  19.79$  12.71$
  Q  0.6645  15.66$  7.1$  7.05$
  Q  0.6645  16.4$  5.94$  6.39$
  Q  -1.3290  15.81$  6.51$  6.45$
  Q  0.6645  14.27$  21.09$  6.09$
  Q  0.6645  14.43$  20.38$  7.58$
  Q  -1.3290  14.53$  20.99$  6.95$
  Q  0.6645  10.74$  19.79$  6.51$
  Q  0.6645  12.03$  18.99$  6.28$
  Q  -1.3290  11.2$  19.09$  6.36$
  Q  0.6645  15.86$  9.07$  19.94$
  Q  0.6645  14.57$  9.87$  19.82$
  Q  -1.3290  15.12$  9.26$  19.62$
  Q  0.6645  18.13$  16.8$  14.53$
  Q  0.6645  17.79$  15.31$  14.74$
  Q  -1.3290  18.18$  15.97$  14.38$
  Q  0.6645  8.73$  3.37$  6.66$
  Q  0.6645  7.94$  2.49$  5.66$
  Q  -1.3290  8.34$  3.18$  5.93$
  Q  0.6645  10.59$  -0.5$  11.48$
  Q  0.6645  10.71$  0.98$  12.3$
  Q  -1.3290  10.35$  0.29$  11.83$
  Q  0.6645  11.41$  9.76$  3.07$
  Q  0.6645  11.23$  10.85$  4.14$
  Q  -1.3290  10.94$  10.34$  3.53$
  Q  0.6645  11.47$  17.13$  7.04$
  Q  0.6645  11.35$  15.61$  6.8$
  Q  -1.3290  11.3$  16.31$  7.26$
  Q  0.6645  1.91$  8.07$  14.19$
  Q  0.6645  3.32$  7.37$  14.14$
  Q  -1.3290  2.6$  7.72$  13.82$
  Q  0.6645  9.55$  2.5$  4.79$
  Q  0.6645  10.02$  1.16$  4.35$
  Q  -1.3290  10.06$  1.98$  4.32$
  Q  0.6645  10.46$  13.61$  2.17$
  Q  0.6645  11.15$  12.21$  1.99$
  Q  -1.3290  10.69$  12.92$  1.77$
  Q  0.6645  13.54$  8.37$  3.4$
  Q  0.6645  12.67$  7.84$  2.2$
  Q  -1.3290  12.84$  8.33$  2.87$
  Q  0.6645  11.54$  18.22$  2.67$
  Q  0.6645  10.11$  18.46$  2.22$
  Q  -1.3290  10.84$  18.68$  2.55$
  Q  0.6645  17.47$  8.24$  2.18$
  Q  0.6645  16.07$  8.42$  2.74$
  Q  -1.3290  16.71$  8.55$  2.21$
  Q  0.6645  5.05$  11.67$  20.06$
  Q  0.6645  5.65$  10.49$  20.76$
  Q  -1.3290  5.61$  11.07$  20.16$
  Q  0.6645  17.21$  8.37$  16.46$
  Q  0.6645  17.09$  9.03$  15.04$
  Q  -1.3290  16.87$  8.88$  15.88$
  Q  0.6645  14.06$  4.11$  13.19$
  Q  0.6645  14.81$  3.4$  14.25$
  Q  -1.3290  14.62$  4.06$  13.8$
  Q  0.6645  5.1$  12.43$  0.83$
  Q  0.6645  4.54$  12.16$  2.33$
  Q  -1.3290  5.1$  12.12$  1.64$
  Q  0.6645  18.75$  5.98$  7.04$
  Q  0.6645  18.49$  6.98$  5.88$
  Q  -1.3290  18.61$  6.21$  6.23$
  Q  0.6645  10.16$  3.31$  8.4$
  Q  0.6645  9.92$  4.82$  7.84$
  Q  -1.3290  9.71$  4.02$  8.1$
  Q  0.6645  11.8$  17.26$  16.95$
  Q  0.6645  11.85$  17.12$  15.42$
  Q  -1.3290  11.62$  17.46$  16.15$
  Q  0.6645  10.79$  14.78$  4.58$
  Q  0.6645  11.36$  13.69$  5.41$
  Q  -1.3290  10.98$  14.4$  5.32$
  Q  0.6645  9.59$  9.11$  22.01$
  Q  0.6645  11.04$  8.67$  21.73$
  Q  -1.3290  10.39$  9.21$  21.75$
  Q  0.6645  20.56$  11.92$  10.18$
  Q  0.6645  20.18$  13.37$  10.7$
  Q  -1.3290  20.7$  12.74$  10.46$
  Q  0.6645  5.16$  4.88$  12.14$
  Q  0.6645  4.83$  3.82$  10.99$
  Q  -1.3290  4.73$  4.29$  11.68$
  Q  0.6645  10.3$  4.72$  1.25$
  Q  0.6645  11.11$  3.5$  0.81$
  Q  -1.3290  10.99$  4.32$  0.99$
  Q  0.6645  14.83$  0.21$  11.77$
  Q  0.6645  13.57$  1.15$  11.58$
  Q  -1.3290  14.02$  0.42$  11.65$
  Q  0.6645  16.9$  6.08$  17.45$
  Q  0.6645  18.32$  6.41$  17.98$
  Q  -1.3290  17.56$  6.59$  17.6$
  Q  0.6645  2.97$  12.05$  13.25$
  Q  0.6645  2.2$  13.37$  13.39$
  Q  -1.3290  2.84$  12.82$  13.56$
  Q  0.6645  14.57$  9.05$  17.68$
  Q  0.6645  15.02$  8.96$  16.23$
  Q  -1.3290  14.45$  9.07$  16.85$
  Q  0.6645  4.4$  14.06$  14.36$
  Q  0.6645  5$  14.88$  15.54$
  Q  -1.3290  5.02$  14.47$  14.81$
  Q  0.6645  14.09$  16.46$  16.93$
  Q  0.6645  14.23$  17.08$  15.55$
  Q  -1.3290  14.46$  16.89$  16.34$
  Q  0.6645  8.53$  8.07$  16.43$
  Q  0.6645  9.36$  7.28$  15.43$
  Q  -1.3290  8.84$  7.88$  15.68$
  Q  0.6645  9.42$  15.66$  7.61$
  Q  0.6645  8.18$  14.88$  7.22$
  Q  -1.3290  8.63$  15.38$  7.72$
  Q  0.6645  7.18$  4.46$  10.39$
  Q  0.6645  8.46$  4.29$  9.56$
  Q  -1.3290  8.02$  4.38$  10.26$
  Q  0.6645  9.01$  3.13$  18.79$
  Q  0.6645  10.23$  3.48$  19.57$
  Q  -1.3290  9.59$  2.98$  19.38$
  Q  0.6645  20.94$  10.45$  7.48$
  Q  0.6645  20.78$  9.44$  8.54$
  Q  -1.3290  20.61$  10.18$  8.18$
  Q  0.6645  8.36$  5.1$  17.75$
  Q  0.6645  7.12$  4.56$  18.54$
  Q  -1.3290  7.73$  5.11$  18.36$
  Q  0.6645  18.34$  11.99$  9.25$
  Q  0.6645  18.84$  10.55$  9.2$
  Q  -1.3290  18.35$  11.18$  9.5$
  Q  0.6645  11.8$  15.19$  15.03$
  Q  0.6645  12.76$  15.31$  13.76$
  Q  -1.3290  12.41$  15.56$  14.51$
  Q  0.6645  8.24$  19.79$  15.02$
  Q  0.6645  8.23$  18.19$  14.98$
  Q  -1.3290  7.96$  18.98$  15.16$
  Q  0.6645  12.62$  4.13$  5.56$
  Q  0.6645  12.1$  3.07$  4.75$
  Q  -1.3290  12.44$  3.78$  4.87$
  Q  0.6645  8.08$  8.22$  13.67$
  Q  0.6645  8.61$  7.84$  12.27$
  Q  -1.3290  8.01$  7.99$  12.86$
  Q  0.6645  18.39$  5.28$  9.44$
  Q  0.6645  19.83$  5.77$  9.08$
  Q  -1.3290  18.97$  5.69$  8.96$
  Q  0.6645  12.47$  10.76$  19.99$
  Q  0.6645  13.54$  11.59$  20.67$
  Q  -1.3290  13.12$  10.89$  20.5$
  Q  0.6645  7.29$  6.13$  12.75$
  Q  0.6645  7.04$  4.97$  13.6$
  Q  -1.3290  6.82$  5.57$  13.11$
  Q  0.6645  14.84$  11.28$  17.34$
  Q  0.6645  15.9$  12.44$  17.57$
  Q  -1.3290  15.09$  12.09$  17.55$
  Q  0.6645  18.11$  6.35$  14.2$
  Q  0.6645  18.29$  6.63$  15.67$
  Q  -1.3290  18.54$  6.63$  14.86$
  Q  0.6645  11.52$  13.2$  18.47$
  Q  0.6645  13.1$  12.73$  18.49$
  Q  -1.3290  12.39$  13.13$  18.75$
  Q  0.6645  3.1$  13$  10.71$
  Q  0.6645  3.79$  13.9$  11.61$
  Q  -1.3290  3.74$  13.47$  10.93$
  Q  0.6645  20.14$  12.63$  3.03$
  Q  0.6645  19.2$  12.64$  4.3$
  Q  -1.3290  19.64$  12.29$  3.66$
  Q  0.6645  4.56$  20.4$  10.14$
  Q  0.6645  5.01$  18.95$  10.18$
  Q  -1.3290  4.89$  19.69$  9.83$
  Q  0.6645  9.24$  12.39$  19.47$
  Q  0.6645  8.78$  12.73$  18.21$
  Q  -1.3290  9.37$  12.51$  18.69$
  Q  0.6645  5.18$  6.41$  2.61$
  Q  0.6645  4.41$  7.49$  3.33$
  Q  -1.3290  4.73$  7.13$  2.64$
  Q  0.6645  13.72$  16.88$  6.75$
  Q  0.6645  14.33$  17.9$  5.82$
  Q  -1.3290  13.9$  17.65$  6.49$
  Q  0.6645  6.85$  19.55$  3.01$
  Q  0.6645  6.92$  18.15$  2.63$
  Q  -1.3290  6.59$  18.78$  3.01$
  Q  0.6645  3.35$  8.93$  9.92$
  Q  0.6645  4.36$  8.7$  10.96$
  Q  -1.3290  3.7$  8.51$  10.52$
  Q  0.6645  7.85$  11.37$  15.54$
  Q  0.6645  9.2$  10.86$  15.82$
  Q  -1.3290  8.65$  11.47$  15.63$
  Q  0.6645  10.25$  10.7$  18.79$
  Q  0.6645  10.54$  9.75$  19.9$
  Q  -1.3290  10.59$  10.01$  19.13$
  Q  0.6645  14.02$  14.4$  8.15$
  Q  0.6645  15.06$  15.03$  7.31$
  Q  -1.3290  14.43$  14.54$  7.43$
  Q  0.6645  17.01$  2$  15.24$
  Q  0.6645  16.71$  3.46$  15.63$
  Q  -1.3290  17.14$  2.87$  15.22$
  Q  0.6645  19.03$  8.98$  4.89$
  Q  0.6645  19.18$  9.22$  6.39$
  Q  -1.3290  18.74$  9.01$  5.68$
  Q  0.6645  2.25$  6.48$  12.2$
  Q  0.6645  2.78$  5.44$  11.36$
  Q  -1.3290  2.18$  5.94$  11.63$
  Q  0.6645  13.6$  4.09$  3.23$
  Q  0.6645  13.33$  4.45$  1.81$
  Q  -1.3290  13.81$  4.25$  2.45$
  Q  0.6645  12.02$  17.61$  11.79$
  Q  0.6645  11.89$  19.04$  12.25$
  Q  -1.3290  11.74$  18.41$  11.73$
  Q  0.6645  5.45$  10.68$  15.02$
  Q  0.6645  5.83$  10.5$  16.56$
  Q  -1.3290  5.91$  10.79$  15.77$
  Q  0.6645  5.49$  4.16$  2.04$
  Q  0.6645  5.65$  5.38$  0.98$
  Q  -1.3290  5.86$  4.84$  1.65$
  Q  0.6645  17.66$  4.45$  5.48$
  Q  0.6645  17.35$  2.96$  5.77$
  Q  -1.3290  17.27$  3.8$  5.86$
  Q  0.6645  0.44$  7.85$  7.08$
  Q  0.6645  1.03$  8.53$  8.34$
  Q  -1.3290  0.44$  8.1$  7.9$
  Q  0.6645  14.43$  19.32$  13.05$
  Q  0.6645  15.88$  18.75$  13.3$
  Q  -1.3290  15.13$  18.85$  12.87$
  Q  0.6645  10.29$  3.43$  16.48$
  Q  0.6645  8.79$  3.44$  16.12$
  Q  -1.3290  9.5$  3.74$  16.41$
  Q  0.6645  15.99$  5.25$  2.67$
  Q  0.6645  16.32$  4.77$  3.96$
  Q  -1.3290  16.43$  5.27$  3.32$
  Q  0.6645  16.49$  17.66$  16.58$
  Q  0.6645  17.65$  18.66$  16.76$
  Q  -1.3290  17.29$  17.96$  16.47$
  Q  0.6645  15.17$  18.14$  11.08$
  Q  0.6645  14.36$  18.25$  9.77$
  Q  -1.3290  14.92$  17.89$  10.32$
  Q  0.6645  8.24$  5.59$  2.64$
  Q  0.6645  9.73$  6.16$  2.93$
  Q  -1.3290  9.05$  5.85$  2.44$
  Q  0.6645  16.83$  14.89$  10.67$
  Q  0.6645  15.96$  15.93$  9.78$
  Q  -1.3290  16.21$  15.14$  10.11$
  Q  0.6645  4.79$  8.15$  5.46$
  Q  0.6645  3.64$  9.11$  5.18$
  Q  -1.3290  4.12$  8.46$  5.04$
  Q  0.6645  11.79$  5.06$  17.5$
  Q  0.6645  12.85$  5.32$  16.34$
  Q  -1.3290  12.36$  4.87$  16.86$
  Q  0.6645  8.35$  7.29$  18.33$
  Q  0.6645  9.28$  8.46$  18.72$
  Q  -1.3290  8.62$  8.09$  18.34$
  Q  0.6645  4.26$  5.22$  17.6$
  Q  0.6645  4.39$  5.69$  16.08$
  Q  -1.3290  4.13$  5.22$  16.76$
  Q  0.6645  19.97$  10.45$  16.7$
  Q  0.6645  21.3$  11.02$  16.4$
  Q  -1.3290  20.67$  10.53$  16.24$
  Q  0.6645  15.7$  17.9$  4.06$
  Q  0.6645  14.93$  19.23$  3.72$
  Q  -1.3290  15.04$  18.44$  4.04$
  Q  0.6645  17.35$  10.28$  20.75$
  Q  0.6645  18.45$  9.21$  20.5$
  Q  -1.3290  17.81$  9.71$  20.26$
  Q  0.6645  9.94$  14.96$  17.01$
  Q  0.6645  8.98$  16.12$  16.5$
  Q  -1.3290  9.19$  15.38$  16.87$
  Q  0.6645  12.47$  1.85$  14.07$
  Q  0.6645  11.27$  2.73$  13.41$
  Q  -1.3290  11.69$  2$  13.72$
  Q  0.6645  12.25$  18.94$  9.81$
  Q  0.6645  12.69$  18.41$  8.47$
  Q  -1.3290  12.65$  18.99$  9.08$
  Q  0.6645  11.57$  7.04$  4.16$
  Q  0.6645  11.68$  5.46$  4.12$
  Q  -1.3290  11.28$  6.23$  4.1$
  Q  0.6645  2.89$  12.36$  3.58$
  Q  0.6645  2.25$  10.91$  3.34$
  Q  -1.3290  2.87$  11.5$  3.49$
  Q  0.6645  5.22$  9.89$  3.7$
  Q  0.6645  6.42$  10.61$  3.15$
  Q  -1.3290  6.01$  10.1$  3.69$
  Q  0.6645  5.44$  3.69$  9.15$
  Q  0.6645  5.01$  5.22$  9.12$
  Q  -1.3290  5.52$  4.53$  9.13$
  Q  0.6645  14.29$  7.71$  20.22$
  Q  0.6645  14.29$  6.12$  20$
  Q  -1.3290  14.03$  6.87$  20.31$
  Q  0.6645  5.69$  4.68$  7.11$
  Q  0.6645  5.54$  5.23$  5.88$
  Q  -1.3290  5.31$  4.7$  6.41$
  Q  0.6645  11.1$  15.99$  3.02$
  Q  0.6645  9.76$  15.62$  2.43$
  Q  -1.3290  10.49$  15.47$  2.82$
  Q  0.6645  7.75$  4.98$  5.21$
  Q  0.6645  8$  6.47$  4.82$
  Q  -1.3290  7.55$  5.77$  5$
  Q  0.6645  9.08$  18.95$  16.97$
  Q  0.6645  9.75$  19.4$  18.25$
  Q  -1.3290  9.24$  18.92$  17.79$
  Q  0.6645  5.77$  16.96$  10.53$
  Q  0.6645  4.52$  16.91$  11.53$
  Q  -1.3290  5.11$  17.26$  10.99$
  Q  0.6645  3.66$  17.34$  6.5$
  Q  0.6645  3.76$  17.39$  4.94$
  Q  -1.3290  4.05$  17.33$  5.76$
  Q  0.6645  18.55$  7.28$  9.9$
  Q  0.6645  19.39$  7.83$  10.89$
  Q  -1.3290  18.65$  7.75$  10.54$
  Q  0.6645  12.75$  2.7$  8.33$
  Q  0.6645  12.3$  2.35$  9.67$
  Q  -1.3290  12.18$  2.45$  8.85$
  Q  0.6645  16.68$  19.03$  9.76$
  Q  0.6645  17.59$  19.35$  8.57$
  Q  -1.3290  17.23$  19.45$  9.35$
  Q  0.6645  13.34$  12.76$  2.32$
  Q  0.6645  13.24$  14.33$  2.7$
  Q  -1.3290  13.4$  13.5$  2.79$
  Q  0.6645  16.87$  16.3$  4.77$
  Q  0.6645  17.43$  16.28$  3.33$
  Q  -1.3290  17.09$  16.64$  4.03$
  Q  0.6645  12.68$  6.72$  0.05$
  Q  0.6645  11.63$  6.15$  0.89$
  Q  -1.3290  11.96$  6.74$  0.43$
  Q  0.6645  16.56$  9.74$  12.4$
  Q  0.6645  17.28$  8.5$  11.9$
  Q  -1.3290  16.67$  8.88$  12.34$
  Q  0.6645  16.01$  5.47$  13.56$
  Q  0.6645  16.31$  6.94$  13.04$
  Q  -1.3290  16.47$  6.11$  13.24$
  Q  0.6645  11.64$  19.51$  15.87$
  Q  0.6645  11.77$  20.78$  16.77$
  Q  -1.3290  11.8$  20.33$  16.04$
  Q  0.6645  7.48$  14$  17.04$
  Q  0.6645  6.42$  12.94$  16.86$
  Q  -1.3290  6.92$  13.42$  17.3$
  Q  0.6645  11.15$  1.52$  15.86$
  Q  0.6645  11.44$  1.42$  17.44$
  Q  -1.3290  11.41$  1.8$  16.67$
  Q  0.6645  18.21$  10.35$  18.39$
  Q  0.6645  17.85$  10.42$  16.89$
  Q  -1.3290  18.31$  10.61$  17.58$
  Q  0.6645  4.53$  15.54$  13.24$
  Q  0.6645  3.17$  16.22$  13.06$
  Q  -1.3290  3.82$  15.72$  12.84$
  Q  0.6645  16.3$  3.68$  10.32$
  Q  0.6645  15.68$  2.71$  9.26$
  Q  -1.3290  15.7$  3.4$  9.79$
  Q  0.6645  11.74$  13.55$  22.26$
  Q  0.6645  12.12$  13.58$  20.74$
  Q  -1.3290  12.04$  13.91$  21.52$
  Q  0.6645  8.33$  5.52$  20.07$
  Q  0.6645  8.68$  6.49$  21.29$
  Q  -1.3290  8.8$  5.84$  20.74$
  Q  0.6645  11.86$  20.72$  8.42$
  Q  0.6645  11.5$  22.17$  8.22$
  Q  -1.3290  11.37$  21.36$  8.19$
  Q  0.6645  17.45$  15.82$  7.27$
  Q  0.6645  16.79$  17.32$  6.99$
  Q  -1.3290  16.84$  16.46$  7.24$
  Q  0.6645  3.87$  14.05$  8.24$
  Q  0.6645  2.84$  14.76$  9.23$
  Q  -1.3290  3.16$  14.52$  8.43$
  Q  0.6645  7.63$  15.31$  3.19$
  Q  0.6645  8.04$  16.75$  3.58$
  Q  -1.3290  7.75$  16.13$  3.03$
  Q  0.6645  3.72$  9.62$  13.59$
  Q  0.6645  4.99$  10.07$  12.92$
  Q  -1.3290  4.46$  10.04$  13.58$
  Q  0.6645  9.08$  9.11$  4.15$
  Q  0.6645  7.75$  8.72$  4.12$
  Q  -1.3290  8.53$  8.55$  4.24$
  Q  0.6645  14.05$  2.93$  10.82$
  Q  0.6645  12.71$  3.67$  11.08$
  Q  -1.3290  13.26$  3.04$  11.14$
  Q  0.6645  2.26$  10.38$  9.01$
  Q  0.6645  2.66$  9.84$  7.71$
  Q  -1.3290  2.43$  9.77$  8.5$
  Q  0.6645  18.42$  10.54$  12.88$
  Q  0.6645  18.21$  11.04$  11.39$
  Q  -1.3290  18.12$  11.06$  12.25$
  Q  0.6645  8.03$  20.59$  9.31$
  Q  0.6645  9.59$  20.67$  9$
  Q  -1.3290  8.84$  20.3$  9.22$
  Q  0.6645  9.84$  18.4$  11.63$
  Q  0.6645  8.53$  18.98$  11.06$
  Q  -1.3290  8.98$  18.51$  11.6$
  Q  0.6645  13.73$  16.53$  19.22$
  Q  0.6645  12.87$  15.39$  18.74$
  Q  -1.3290  13.07$  16.21$  18.79$
  Q  0.6645  11.42$  12.98$  15.87$
  Q  0.6645  10.01$  13.55$  15.6$
  Q  -1.3290  10.85$  13.57$  15.69$
  Q  0.6645  9.77$  4.52$  13.6$
  Q  0.6645  9.3$  4.22$  12.16$
  Q  -1.3290  9.62$  3.99$  12.91$
  Q  0.6645  13.16$  16.42$  1.71$
  Q  0.6645  13.89$  17.09$  2.94$
  Q  -1.3290  13.31$  16.59$  2.54$
  Q  0.6645  7.21$  12.19$  20.62$
  Q  0.6645  7.74$  13.61$  21.19$
  Q  -1.3290  7.73$  12.75$  21.02$
  Q  0.6645  17.78$  12.62$  18.67$
  Q  0.6645  16.48$  12.61$  19.5$
  Q  -1.3290  17.1$  12.95$  19.04$
  Q  0.6645  17.48$  13.95$  4.99$
  Q  0.6645  18.08$  13.64$  6.28$
  Q  -1.3290  18.08$  13.96$  5.54$
  Q  0.6645  7.58$  13.07$  4.13$
  Q  0.6645  6.58$  13.11$  2.82$
  Q  -1.3290  7.06$  13.38$  3.5$
  Q  0.6645  5.64$  14.42$  4.72$
  Q  0.6645  4.94$  15.56$  5.47$
  Q  -1.3290  5.11$  14.74$  5.28$
  Q  0.6645  14.98$  5.19$  16.04$
  Q  0.6645  14.91$  4.43$  17.42$
  Q  -1.3290  15.31$  4.77$  16.73$
  Q  0.6645  10.68$  5.4$  20.17$
  Q  0.6645  12.04$  6.08$  19.67$
  Q  -1.3290  11.37$  5.53$  19.65$
  Q  0.6645  8.07$  15.86$  -0.29$
  Q  0.6645  7.33$  15.62$  1.07$
  Q  -1.3290  7.55$  15.46$  0.24$
  Q  0.6645  16.19$  11.05$  5.66$
  Q  0.6645  17.15$  10.13$  5.16$
  Q  -1.3290  16.65$  10.75$  5.06$
  Q  0.6645  17.37$  14.32$  16.76$
  Q  0.6645  16.13$  14.48$  15.87$
  Q  -1.3290  16.92$  14.25$  16.05$
  Q  0.6645  5.54$  6.22$  14.23$
  Q  0.6645  5.18$  7.46$  14.92$
  Q  -1.3290  4.99$  6.73$  14.62$
  Q  0.6645  5.31$  18.96$  6.26$
  Q  0.6645  5.65$  19.44$  7.66$
  Q  -1.3290  5.79$  19.36$  6.86$
  Q  0.6645  5.91$  9.93$  18.62$
  Q  0.6645  6.61$  8.76$  17.91$
  Q  -1.3290  6$  9.3$  18.03$
  Q  0.6645  2.87$  6.14$  8.37$
  Q  0.6645  3.46$  6.82$  9.86$
  Q  -1.3290  3.39$  6.28$  9.1$
  Q  0.6645  2.77$  13.44$  15.66$
  Q  0.6645  2.86$  14.55$  16.58$
  Q  -1.3290  2.74$  13.76$  16.42$
*
