! NoMOPrint PrintBasis #MINIPRINT SMALLPRINT LARGEPRINT
! ALLPOP XYZFILE
#! BP86 3-21G   TightSCF
! ENGRAD
! B3LYP NormalPNO PModel #DecontractAux
#! VerySlowConv 
 %maxcore 5000
 %scf  maxiter   500  end 

%pal
    nprocs 32
end

%basis
    NewGTO O    # New basis for oxygen
        "aug-cc-pVTZ"
    end
    NewGTO C    # New basis for carbon
        "aug-cc-pVTZ"
    end
    NewGTO H    # New basis for hydrogen
        "cc-pVTZ"
    end
end

* xyz 0   1
  C  11.9  12.12  10.54  #1
  H  12  13.24  10.56  #2
  H  11.31  11.92  9.64  #3
  C  11.35  11.36  11.78  #4
  H  12.17  11.12  12.47  #5
  H  10.65  12.02  12.21  #6
  C  10.52  10.02  11.61  #7
  H  9.96  9.68  12.49  #8
  H  11.22  9.18  11.51  #9
  C  9.58  10.04  10.45  #10
  H  10.18  10.37  9.59  #11
  H  8.79  10.76  10.59  #12
  O  8.91  8.79  10.2  #13
  H  8.21  8.89  9.53  #14
  O  13.17  11.54  10.24  #15
  H  13.81  11.74  11.02  #16
  O  6.54  8.96  12.43  #17
  H  7.01  8.61  11.61  #18
  H  7.08  9.62  12.84  #19
  O  15.42  11.63  13.01  #20
  H  16.33  11.92  12.68  #21
  H  14.83  12.37  12.86  #22
  O  15.38  11.36  7.95  #23
  H  15.08  10.73  8.65  #24
  H  16.23  10.96  7.74  #25
  O  12.75  14.74  8.41  #26
  H  12.56  13.94  7.88  #27
  H  12.58  15.53  7.92  #28
  O  11.38  12.44  6.88  #29
  H  12.29  12.15  6.5  #30
  H  10.88  12.75  6.14  #31
  O  9.82  5.58  8.97  #32
  H  9.19  4.91  8.76  #33
  H  9.61  5.99  9.85  #34
  O  14.32  15.18  10.7  #35
  H  13.76  15.05  9.98  #36
  H  14.84  15.95  10.43  #37
  O  17.72  9.85  7.28  #38
  H  17.74  8.91  7.09  #39
  H  18.58  10.03  7.74  #40
  O  15.07  10.89  15.73  #41
  H  15.37  11.13  14.87  #42
  H  15.54  10.12  16.05  #43
  O  16.8  8.8  12.95  #44
  H  16.54  9.63  12.62  #45
  H  17.35  8.34  12.26  #46
  O  8.01  9.62  7.64  #47
  H  8.45  8.76  7.67  #48
  H  7.09  9.29  7.83  #49
  O  11.96  6.96  10.66  #50
  H  12.51  7.64  10.27  #51
  H  12.47  6.81  11.42  #52
  O  11.99  17.15  7.46  #53
  H  12.56  17.44  6.68  #54
  H  11.09  17.11  7.16  #55
  O  13.75  8.98  9.3  #56
  H  13.39  9.75  9.72  #57
  H  13.53  8.94  8.37  #58
  O  5.43  8.47  8.88  #59
  H  4.95  8.7  9.66  #60
  H  5.59  7.51  8.82  #61
  O  8.9  13.96  11.78  #62
  H  9.49  14.54  11.31  #63
  H  8.22  13.72  11.14  #64
  O  6.82  11.79  12.75  #65
  H  7.26  12.29  12.08  #66
  H  6.77  12.44  13.47  #67
  O  13.75  13.99  13.07  #68
  H  12.79  14.13  13.22  #69
  H  14.02  14.59  12.34  #70
  O  11.84  9.46  6.82  #71
  H  11.06  8.9  6.97  #72
  H  11.45  10.34  6.91  #73
  O  16.25  13.53  9.82  #74
  H  15.43  13.88  10.15  #75
  H  16.04  12.67  9.34  #76
  O  9.52  14.57  8.92  #77
  H  9  14.09  8.26  #78
  H  10.46  14.28  8.81  #79
  O  8.69  6.28  11.54  #80
  H  9.49  6.24  12.09  #81
  H  8.84  7.14  11.11  #82
  O  4.71  7.13  13.22  #83
  H  5.5  7.63  13  #84
  H  4.92  6.55  13.98  #85
  O  18.38  11.45  12.57  #86
  H  18.26  10.96  11.73  #87
  H  18.65  12.32  12.25  #88
  O  13.89  12.43  5.97  #89
  H  13.91  13.35  5.68  #90
  H  14.55  12.27  6.67  #91
  O  4.81  10.75  10.58  #92
  H  3.96  10.87  11.07  #93
  H  5.33  10.46  11.31  #94
  O  11.06  15.9  11.24  #95
  H  11.68  15.55  10.58  #96
  H  11.55  16.75  11.33  #97
  Q  0.6645  18.88$  13.12$  15.7$
  Q  0.6645  17.46$  13.61$  15.37$
  Q  -1.3290  18.27$  13.73$  15.56$
  Q  0.6645  7.13$  13.84$  15.11$
  Q  0.6645  5.89$  12.93$  15.43$
  Q  -1.3290  6.38$  13.45$  14.97$
  Q  0.6645  15.99$  1.15$  11.34$
  Q  0.6645  16.04$  1.94$  10.01$
  Q  -1.3290  16.35$  1.65$  10.78$
  Q  0.6645  18.71$  16.3$  18.18$
  Q  0.6645  18.32$  15.54$  16.92$
  Q  -1.3290  18.18$  15.96$  17.63$
  Q  0.6645  6.13$  4.75$  2.1$
  Q  0.6645  6.71$  6.05$  1.45$
  Q  -1.3290  6.5$  5.23$  1.48$
  Q  0.6645  4.75$  16.7$  15.37$
  Q  0.6645  5.21$  15.3$  15.89$
  Q  -1.3290  4.69$  15.86$  15.52$
  Q  0.6645  9.71$  6.73$  7.73$
  Q  0.6645  9.23$  7.14$  6.26$
  Q  -1.3290  9.63$  7.27$  7.02$
  Q  0.6645  3.68$  8.2$  18.62$
  Q  0.6645  4.46$  8.65$  19.91$
  Q  -1.3290  3.84$  8.68$  19.33$
  Q  0.6645  18.02$  8.65$  15.97$
  Q  0.6645  17.42$  9.55$  14.88$
  Q  -1.3290  17.82$  9.37$  15.58$
  Q  0.6645  11.45$  2.69$  8.47$
  Q  0.6645  11.07$  2.82$  9.9$
  Q  -1.3290  11.3$  2.39$  9.2$
  Q  0.6645  10.91$  15.6$  4.53$
  Q  0.6645  9.39$  15.68$  4.6$
  Q  -1.3290  10.17$  15.51$  4.89$
  Q  0.6645  9.2$  6.26$  20.59$
  Q  0.6645  10.46$  5.79$  21.36$
  Q  -1.3290  9.76$  6.26$  21.21$
  Q  0.6645  9.6$  19.76$  4.87$
  Q  0.6645  9.91$  20.26$  6.4$
  Q  -1.3290  9.73$  20.34$  5.53$
  Q  0.6645  18.36$  11.21$  5.46$
  Q  0.6645  18.35$  12.61$  5.99$
  Q  -1.3290  18.62$  12$  5.48$
  Q  0.6645  15.45$  13.6$  16.95$
  Q  0.6645  15.93$  14.23$  18.33$
  Q  -1.3290  15.8$  13.63$  17.76$
  Q  0.6645  18.67$  18.83$  12.05$
  Q  0.6645  17.42$  19.65$  11.45$
  Q  -1.3290  18.19$  19.23$  11.46$
  Q  0.6645  18.35$  8.92$  3.77$
  Q  0.6645  18.01$  10.28$  3.38$
  Q  -1.3290  17.96$  9.64$  3.87$
  Q  0.6645  17.66$  6.89$  5.76$
  Q  0.6645  16.84$  6.89$  6.96$
  Q  -1.3290  17.49$  7.11$  6.54$
  Q  0.6645  5.42$  16.23$  9.18$
  Q  0.6645  6.08$  15.11$  8.33$
  Q  -1.3290  5.98$  15.63$  9$
  Q  0.6645  1.53$  14.98$  11.42$
  Q  0.6645  1.61$  14.99$  12.98$
  Q  -1.3290  1.3$  15.17$  12.22$
  Q  0.6645  9.67$  -0.73$  8.96$
  Q  0.6645  9.72$  0.85$  9.07$
  Q  -1.3290  9.36$  0.05$  9$
  Q  0.6645  11.4$  3.35$  5.69$
  Q  0.6645  11.61$  4.74$  6.21$
  Q  -1.3290  11.36$  4.18$  5.65$
  Q  0.6645  11.14$  0.11$  13.18$
  Q  0.6645  11.23$  1.23$  14.12$
  Q  -1.3290  11.54$  0.72$  13.57$
  Q  0.6645  17.43$  12.51$  17.61$
  Q  0.6645  17.81$  11.16$  16.93$
  Q  -1.3290  17.84$  11.73$  17.52$
  Q  0.6645  22.7$  5.51$  12.17$
  Q  0.6645  21.34$  5.95$  12.6$
  Q  -1.3290  21.94$  5.37$  12.47$
  Q  0.6645  8$  3.23$  12.01$
  Q  0.6645  7.6$  4.6$  11.5$
  Q  -1.3290  7.54$  3.79$  11.58$
  Q  0.6645  6.91$  16.43$  4.67$
  Q  0.6645  7.8$  17.4$  3.98$
  Q  -1.3290  7.4$  16.7$  4.05$
  Q  0.6645  10.86$  6.55$  14.53$
  Q  0.6645  9.52$  5.81$  14.27$
  Q  -1.3290  10.34$  6.01$  14.15$
  Q  0.6645  15.5$  6.3$  12.19$
  Q  0.6645  16.53$  5.17$  12.07$
  Q  -1.3290  16.16$  5.89$  11.86$
  Q  0.6645  15.49$  11.99$  19.04$
  Q  0.6645  16.16$  11.6$  20.46$
  Q  -1.3290  15.52$  11.68$  19.87$
  Q  0.6645  10.34$  12.48$  2.68$
  Q  0.6645  9.08$  13.2$  3.06$
  Q  -1.3290  9.68$  12.64$  3.16$
  Q  0.6645  7.3$  5.42$  15.71$
  Q  0.6645  7.74$  4.15$  14.98$
  Q  -1.3290  7.83$  4.94$  15.25$
  Q  0.6645  0.92$  10.61$  5.84$
  Q  0.6645  1.13$  9.53$  4.71$
  Q  -1.3290  1.32$  9.97$  5.42$
  Q  0.6645  22.5$  13.39$  9.12$
  Q  0.6645  21.29$  14.24$  8.93$
  Q  -1.3290  21.73$  13.56$  8.84$
  Q  0.6645  10.13$  3.41$  12.61$
  Q  0.6645  9.86$  1.9$  12.44$
  Q  -1.3290  9.7$  2.7$  12.7$
  Q  0.6645  2.05$  8.03$  9.04$
  Q  0.6645  2.46$  7.73$  10.48$
  Q  -1.3290  2.34$  8.24$  9.81$
  Q  0.6645  9.1$  1.82$  5.44$
  Q  0.6645  9.02$  0.32$  5.7$
  Q  -1.3290  8.94$  1.13$  5.91$
  Q  0.6645  3.62$  10.74$  18.39$
  Q  0.6645  4.55$  11.56$  17.65$
  Q  -1.3290  3.8$  11.32$  17.85$
  Q  0.6645  3.45$  5.24$  11.08$
  Q  0.6645  4.59$  5.95$  11.77$
  Q  -1.3290  4.22$  5.61$  11.11$
  Q  0.6645  6.03$  7.9$  1.66$
  Q  0.6645  7.51$  8.02$  1.57$
  Q  -1.3290  6.72$  7.94$  1.25$
  Q  0.6645  10.57$  19.94$  15.15$
  Q  0.6645  11.47$  18.89$  15.49$
  Q  -1.3290  11.12$  19.37$  14.95$
  Q  0.6645  17.6$  16.73$  12.95$
  Q  0.6645  17.73$  15.63$  11.9$
  Q  -1.3290  17.42$  16.35$  12.24$
  Q  0.6645  7.56$  16.51$  9.88$
  Q  0.6645  9.08$  16.34$  10.1$
  Q  -1.3290  8.34$  16.78$  10.04$
  Q  0.6645  12.25$  8.92$  14.73$
  Q  0.6645  13.68$  9.58$  14.6$
  Q  -1.3290  13.07$  8.98$  14.51$
  Q  0.6645  5.81$  16.22$  18.14$
  Q  0.6645  6.03$  15.24$  19.04$
  Q  -1.3290  5.6$  15.55$  18.52$
  Q  0.6645  14.36$  12.82$  20.93$
  Q  0.6645  12.96$  13.51$  20.53$
  Q  -1.3290  13.79$  13.43$  20.88$
  Q  0.6645  3.84$  6.24$  5.37$
  Q  0.6645  4.79$  6.13$  6.59$
  Q  -1.3290  4.58$  6.31$  5.79$
  Q  0.6645  6.6$  11.32$  4.39$
  Q  0.6645  5.06$  11.39$  4.05$
  Q  -1.3290  5.89$  11.3$  3.9$
  Q  0.6645  3.76$  8.74$  14.1$
  Q  0.6645  3.43$  10.27$  14.36$
  Q  -1.3290  3.37$  9.42$  14.46$
  Q  0.6645  5.65$  4.98$  4.31$
  Q  0.6645  5.26$  3.45$  4.28$
  Q  -1.3290  5.76$  4.15$  4.14$
  Q  0.6645  19.3$  10.47$  13.53$
  Q  0.6645  19.48$  9.28$  14.4$
  Q  -1.3290  19.76$  9.89$  13.92$
  Q  0.6645  8.16$  1.9$  14.04$
  Q  0.6645  6.7$  2.27$  13.94$
  Q  -1.3290  7.36$  1.9$  14.3$
  Q  0.6645  2.88$  7.03$  12.67$
  Q  0.6645  1.57$  7.79$  12.77$
  Q  -1.3290  2.1$  7.22$  12.43$
  Q  0.6645  4.08$  12.17$  7.97$
  Q  0.6645  4.01$  13.63$  7.24$
  Q  -1.3290  4.23$  13.03$  7.88$
  Q  0.6645  19.14$  6.87$  8.11$
  Q  0.6645  20.07$  6.72$  9.38$
  Q  -1.3290  19.76$  6.54$  8.61$
  Q  0.6645  10.95$  13.59$  19.71$
  Q  0.6645  11.83$  12.99$  18.61$
  Q  -1.3290  11.65$  13.51$  19.24$
  Q  0.6645  6.3$  4.97$  8.24$
  Q  0.6645  5.24$  5.56$  9.33$
  Q  -1.3290  5.62$  5.43$  8.53$
  Q  0.6645  17.38$  17.84$  15.63$
  Q  0.6645  16.32$  18.05$  14.63$
  Q  -1.3290  16.97$  17.65$  14.95$
  Q  0.6645  5.95$  13.42$  17.79$
  Q  0.6645  7.05$  12.41$  17.6$
  Q  -1.3290  6.26$  12.66$  17.59$
  Q  0.6645  18.02$  6.51$  11.82$
  Q  0.6645  19.17$  7.04$  12.72$
  Q  -1.3290  18.76$  6.91$  11.99$
  Q  0.6645  5.18$  8.14$  4.61$
  Q  0.6645  5.74$  9.14$  3.51$
  Q  -1.3290  5.55$  8.38$  3.87$
  Q  0.6645  5.75$  3.95$  12.65$
  Q  0.6645  4.85$  3.04$  13.55$
  Q  -1.3290  5.47$  3.62$  13.39$
  Q  0.6645  13.69$  4.54$  15.04$
  Q  0.6645  12.5$  4.29$  14.23$
  Q  -1.3290  13.33$  4.39$  14.32$
  Q  0.6645  10.72$  15.19$  14.88$
  Q  0.6645  11$  15.54$  13.33$
  Q  -1.3290  11.16$  15.23$  14.14$
  Q  0.6645  11.4$  2.75$  19.28$
  Q  0.6645  12.29$  3.8$  18.78$
  Q  -1.3290  11.55$  3.5$  18.99$
  Q  0.6645  10.32$  8.19$  1.98$
  Q  0.6645  9.56$  7.39$  0.93$
  Q  -1.3290  9.71$  7.69$  1.73$
  Q  0.6645  10.3$  19.2$  2.92$
  Q  0.6645  10.5$  17.86$  3.43$
  Q  -1.3290  10.04$  18.56$  3.37$
  Q  0.6645  7.59$  18.29$  6.71$
  Q  0.6645  6.4$  18.68$  7.66$
  Q  -1.3290  6.79$  18.49$  6.92$
  Q  0.6645  10.95$  19.1$  7.85$
  Q  0.6645  11.63$  20.47$  7.88$
  Q  -1.3290  10.98$  19.92$  7.92$
  Q  0.6645  4.38$  19.92$  12.1$
  Q  0.6645  4.42$  18.4$  11.9$
  Q  -1.3290  4.8$  19.18$  12$
  Q  0.6645  4.64$  15.36$  5.97$
  Q  0.6645  3.28$  15.11$  5.05$
  Q  -1.3290  3.88$  14.98$  5.69$
  Q  0.6645  3.47$  8.28$  16.38$
  Q  0.6645  2.36$  7.35$  17.16$
  Q  -1.3290  3.19$  7.63$  16.89$
  Q  0.6645  8.47$  13.33$  18.67$
  Q  0.6645  8.75$  11.91$  18.89$
  Q  -1.3290  8.73$  12.58$  18.42$
  Q  0.6645  20.96$  11.21$  6.84$
  Q  0.6645  21.83$  12.45$  6.96$
  Q  -1.3290  21.53$  11.75$  6.55$
  Q  0.6645  11.13$  7.34$  20.23$
  Q  0.6645  11.47$  8.74$  20.55$
  Q  -1.3290  11.57$  8.03$  20.15$
  Q  0.6645  4.68$  3.8$  8.21$
  Q  0.6645  3.64$  3.2$  7.28$
  Q  -1.3290  4.07$  3.26$  7.97$
  Q  0.6645  6.84$  13.24$  8.17$
  Q  0.6645  7.35$  12.82$  6.74$
  Q  -1.3290  7.23$  13.36$  7.42$
  Q  0.6645  13.76$  22.24$  8.38$
  Q  0.6645  13.56$  21.71$  7.07$
  Q  -1.3290  13.32$  21.8$  7.84$
  Q  0.6645  8.72$  20.96$  12.66$
  Q  0.6645  9.33$  21.52$  11.32$
  Q  -1.3290  9.22$  21.5$  12.16$
  Q  0.6645  7.25$  17.34$  14.52$
  Q  0.6645  7.19$  18.85$  14.46$
  Q  -1.3290  6.99$  18.07$  14.78$
  Q  0.6645  12.55$  8.56$  5.41$
  Q  0.6645  13.69$  9.03$  4.55$
  Q  -1.3290  13.11$  8.48$  4.82$
  Q  0.6645  6.37$  16.66$  6.81$
  Q  0.6645  6.92$  15.21$  6.34$
  Q  -1.3290  6.39$  15.9$  6.35$
  Q  0.6645  11.72$  8.04$  16.48$
  Q  0.6645  10.49$  7.35$  16.69$
  Q  -1.3290  10.95$  7.84$  16.25$
  Q  0.6645  8.83$  8$  3.82$
  Q  0.6645  7.37$  7.9$  4.2$
  Q  -1.3290  8.17$  7.83$  4.33$
  Q  0.6645  9.31$  16.47$  6.57$
  Q  0.6645  8.83$  16.98$  8$
  Q  -1.3290  9.05$  17.05$  7.17$
  Q  0.6645  15.39$  14.89$  4.41$
  Q  0.6645  15.98$  14.7$  5.91$
  Q  -1.3290  15.43$  14.96$  5.28$
  Q  0.6645  7.74$  9.88$  20.47$
  Q  0.6645  7.27$  11.29$  20.89$
  Q  -1.3290  7.78$  10.72$  20.55$
  Q  0.6645  14.12$  3.55$  10.68$
  Q  0.6645  14.72$  4.98$  10.27$
  Q  -1.3290  14.27$  4.27$  10.18$
  Q  0.6645  7.34$  18.57$  9.9$
  Q  0.6645  5.86$  18.74$  10.33$
  Q  -1.3290  6.52$  18.81$  9.81$
  Q  0.6645  11.49$  5.12$  3.76$
  Q  0.6645  10.72$  6.14$  2.76$
  Q  -1.3290  11.17$  5.44$  2.99$
  Q  0.6645  5.68$  0.94$  6.33$
  Q  0.6645  7.09$  1.49$  5.93$
  Q  -1.3290  6.28$  1.22$  5.81$
  Q  0.6645  20.57$  15.9$  6.72$
  Q  0.6645  19.31$  16.32$  5.99$
  Q  -1.3290  19.82$  15.78$  6.37$
  Q  0.6645  2.92$  3.28$  9.47$
  Q  0.6645  1.56$  3.16$  10.15$
  Q  -1.3290  2.4$  3.27$  10.12$
  Q  0.6645  14.85$  11.52$  2.97$
  Q  0.6645  13.74$  12.16$  2.08$
  Q  -1.3290  14.46$  12.13$  2.51$
  Q  0.6645  8.01$  10.65$  5.96$
  Q  0.6645  8.81$  11.47$  4.85$
  Q  -1.3290  8.2$  11.32$  5.41$
  Q  0.6645  8.12$  15.57$  2.39$
  Q  0.6645  9.09$  15.72$  1.26$
  Q  -1.3290  8.7$  15.26$  1.84$
  Q  0.6645  8.51$  15.69$  16.11$
  Q  0.6645  8.69$  15.43$  14.58$
  Q  -1.3290  8.72$  15.23$  15.4$
  Q  0.6645  5.64$  11.32$  2.03$
  Q  0.6645  4.76$  12.31$  1.34$
  Q  -1.3290  5.35$  11.71$  1.38$
  Q  0.6645  11.89$  10.73$  1.96$
  Q  0.6645  12.25$  11.23$  0.65$
  Q  -1.3290  11.92$  11.32$  1.43$
  Q  0.6645  13.38$  7.44$  20.34$
  Q  0.6645  14.56$  7.24$  21.36$
  Q  -1.3290  14.15$  7.18$  20.59$
  Q  0.6645  15.52$  8.13$  19.8$
  Q  0.6645  15.97$  9.61$  19.76$
  Q  -1.3290  16.06$  8.81$  19.66$
  Q  0.6645  3.62$  18.05$  8.66$
  Q  0.6645  3.37$  17.19$  10$
  Q  -1.3290  3.69$  17.36$  9.23$
  Q  0.6645  18.16$  18.33$  9.59$
  Q  0.6645  17.89$  18.09$  8.05$
  Q  -1.3290  18.23$  17.92$  8.84$
  Q  0.6645  12.34$  8.49$  2.91$
  Q  0.6645  12.87$  8.92$  1.5$
  Q  -1.3290  12.27$  8.84$  2.13$
  Q  0.6645  8.03$  16.83$  12.38$
  Q  0.6645  7.44$  15.53$  12.85$
  Q  -1.3290  7.88$  16.23$  12.94$
  Q  0.6645  17.24$  9.56$  9.87$
  Q  0.6645  18.37$  10.7$  9.71$
  Q  -1.3290  17.67$  10.31$  10.04$
  Q  0.6645  5.08$  14.5$  13.48$
  Q  0.6645  5.27$  14.12$  11.98$
  Q  -1.3290  5.07$  14.62$  12.64$
  Q  0.6645  11.77$  18.66$  12.88$
  Q  0.6645  12.53$  18.77$  11.56$
  Q  -1.3290  12.21$  18.4$  12.24$
  Q  0.6645  14.97$  14.65$  14.59$
  Q  0.6645  16$  15.48$  15.5$
  Q  -1.3290  15.54$  14.78$  15.24$
  Q  0.6645  3.85$  16.24$  12.12$
  Q  0.6645  2.73$  17.19$  12.6$
  Q  -1.3290  3.36$  16.92$  12.09$
  Q  0.6645  5.02$  4.82$  15.02$
  Q  0.6645  4.49$  5.85$  16.09$
  Q  -1.3290  5.08$  5.42$  15.63$
  Q  0.6645  14.32$  3.14$  12.79$
  Q  0.6645  13.53$  1.88$  12.4$
  Q  -1.3290  14.11$  2.49$  12.29$
  Q  0.6645  5.24$  1.03$  10.86$
  Q  0.6645  4.13$  2.04$  10.76$
  Q  -1.3290  4.49$  1.32$  11$
  Q  0.6645  19.38$  14.06$  10.57$
  Q  0.6645  17.96$  13.75$  10.75$
  Q  -1.3290  18.74$  13.88$  11.01$
  Q  0.6645  3.87$  13.24$  4.88$
  Q  0.6645  3.82$  11.89$  5.64$
  Q  -1.3290  3.72$  12.41$  4.98$
  Q  0.6645  14.73$  8.21$  16.96$
  Q  0.6645  16.08$  8.2$  17.79$
  Q  -1.3290  15.51$  7.98$  17.18$
  Q  0.6645  13.5$  17.7$  15.43$
  Q  0.6645  12.48$  16.51$  15.26$
  Q  -1.3290  13.01$  17.03$  15.69$
  Q  0.6645  6.4$  20.83$  9.56$
  Q  0.6645  7.21$  22.12$  9.37$
  Q  -1.3290  6.53$  21.66$  9.62$
  Q  0.6645  20.95$  16.28$  10.05$
  Q  0.6645  19.58$  16.37$  9.24$
  Q  -1.3290  20.3$  15.98$  9.56$
  Q  0.6645  21.35$  15.14$  13.21$
  Q  0.6645  20.03$  14.65$  13.64$
  Q  -1.3290  20.64$  15.23$  13.65$
  Q  0.6645  6.47$  3.16$  18.31$
  Q  0.6645  5.71$  4.13$  17.43$
  Q  -1.3290  6.16$  3.91$  18.09$
  Q  0.6645  20.01$  11.5$  16.8$
  Q  0.6645  20.45$  10.9$  15.49$
  Q  -1.3290  20.3$  11.54$  16.03$
  Q  0.6645  0.2$  7.09$  7.62$
  Q  0.6645  1.07$  8.11$  6.74$
  Q  -1.3290  0.86$  7.62$  7.44$
  Q  0.6645  12.2$  3.75$  11.45$
  Q  0.6645  11.57$  5.07$  10.96$
  Q  -1.3290  11.57$  4.3$  11.33$
  Q  0.6645  14.27$  19.62$  14.71$
  Q  0.6645  13.83$  18.63$  13.65$
  Q  -1.3290  14.33$  18.91$  14.23$
  Q  0.6645  6.72$  8.15$  21.27$
  Q  0.6645  7.19$  7.37$  20.01$
  Q  -1.3290  6.81$  8$  20.44$
  Q  0.6645  1.89$  11.7$  4.21$
  Q  0.6645  0.73$  12.61$  4.3$
  Q  -1.3290  1.22$  12.07$  3.9$
  Q  0.6645  12.14$  16.35$  2.38$
  Q  0.6645  12.53$  17.7$  3.06$
  Q  -1.3290  12.07$  16.99$  2.95$
  Q  0.6645  12.12$  1.24$  7.17$
  Q  0.6645  10.78$  1.42$  6.37$
  Q  -1.3290  11.61$  1.55$  6.52$
  Q  0.6645  1.61$  14.01$  15.23$
  Q  0.6645  2.78$  15.04$  15.28$
  Q  -1.3290  2.05$  14.72$  14.97$
  Q  0.6645  1.88$  10.39$  10.52$
  Q  0.6645  1.78$  10.94$  11.88$
  Q  -1.3290  1.92$  10.98$  11.07$
  Q  0.6645  14.53$  10.9$  5.19$
  Q  0.6645  15.91$  10.28$  4.68$
  Q  -1.3290  15.1$  10.4$  4.66$
  Q  0.6645  9.68$  16.76$  17.94$
  Q  0.6645  8.67$  17.64$  17.86$
  Q  -1.3290  8.9$  16.9$  17.84$
  Q  0.6645  15.69$  18.39$  6.74$
  Q  0.6645  16.96$  18.8$  6$
  Q  -1.3290  16.42$  18.79$  6.66$
  Q  0.6645  13.8$  7.49$  13.19$
  Q  0.6645  13.79$  6.09$  13.42$
  Q  -1.3290  13.93$  6.74$  12.96$
  Q  0.6645  2.26$  12.87$  10.29$
  Q  0.6645  3.07$  13.83$  9.41$
  Q  -1.3290  2.47$  13.61$  9.98$
  Q  0.6645  16.27$  17.28$  10.99$
  Q  0.6645  16.26$  17.73$  9.54$
  Q  -1.3290  15.9$  17.52$  10.25$
  Q  0.6645  11.59$  11.81$  16.61$
  Q  0.6645  13.06$  11.47$  16.54$
  Q  -1.3290  12.37$  11.74$  16.91$
  Q  0.6645  10.35$  4.57$  17.52$
  Q  0.6645  9.72$  5.21$  16.23$
  Q  -1.3290  10.21$  5.15$  16.94$
  Q  0.6645  12.58$  8.53$  18.5$
  Q  0.6645  12.46$  9.81$  17.65$
  Q  -1.3290  12.75$  9.06$  17.84$
  Q  0.6645  6.49$  19.94$  12.82$
  Q  0.6645  6.82$  21.04$  13.97$
  Q  -1.3290  6.92$  20.3$  13.47$
  Q  0.6645  13.92$  5.37$  6.65$
  Q  0.6645  14.69$  5.31$  5.17$
  Q  -1.3290  14.39$  5.03$  5.97$
  Q  0.6645  11.53$  1.96$  16.25$
  Q  0.6645  10.31$  2.95$  16.06$
  Q  -1.3290  10.8$  2.27$  15.91$
  Q  0.6645  7.87$  14.28$  20.64$
  Q  0.6645  8.08$  15.64$  19.9$
  Q  -1.3290  7.94$  14.8$  19.97$
  Q  0.6645  3.88$  10.01$  8.04$
  Q  0.6645  3.22$  10.28$  6.68$
  Q  -1.3290  3.79$  10.39$  7.28$
  Q  0.6645  7.79$  2.96$  8.26$
  Q  0.6645  7.33$  3.75$  9.45$
  Q  -1.3290  7.54$  3.66$  8.65$
  Q  0.6645  8.55$  6.07$  18.3$
  Q  0.6645  7.44$  5.25$  19.02$
  Q  -1.3290  8.04$  5.85$  18.94$
  Q  0.6645  14.13$  18.21$  4.87$
  Q  0.6645  14.59$  16.79$  5.48$
  Q  -1.3290  14.29$  17.61$  5.47$
  Q  0.6645  10.23$  12.84$  15.41$
  Q  0.6645  9.63$  12.18$  16.54$
  Q  -1.3290  10.07$  12.19$  15.86$
  Q  0.6645  5.96$  12.4$  10.16$
  Q  0.6645  6.01$  13.98$  9.9$
  Q  -1.3290  6.3$  13.2$  10.21$
  Q  0.6645  1.02$  9.89$  13.95$
  Q  0.6645  -0.12$  9.8$  13.17$
  Q  -1.3290  0.55$  9.49$  13.44$
  Q  0.6645  20.42$  17.02$  13.23$
  Q  0.6645  21.06$  17.98$  12.14$
  Q  -1.3290  20.5$  17.76$  12.78$
  Q  0.6645  20.85$  6.47$  14.47$
  Q  0.6645  20.98$  7.91$  14.02$
  Q  -1.3290  20.58$  7.17$  14.08$
  Q  0.6645  15.86$  4.56$  16.54$
  Q  0.6645  14.73$  4.58$  17.43$
  Q  -1.3290  15.1$  4.34$  16.75$
  Q  0.6645  11.7$  5.77$  8.6$
  Q  0.6645  13.01$  5.11$  9.01$
  Q  -1.3290  12.43$  5.37$  8.44$
  Q  0.6645  14.46$  18.97$  10.26$
  Q  0.6645  13.53$  20.12$  9.78$
  Q  -1.3290  13.9$  19.58$  10.32$
  Q  0.6645  16.79$  2.87$  12.32$
  Q  0.6645  18.14$  3.47$  12.78$
  Q  -1.3290  17.31$  3.45$  12.74$
  Q  0.6645  16.66$  6.92$  10.07$
  Q  0.6645  15.61$  7.95$  9.54$
  Q  -1.3290  16.39$  7.58$  9.6$
  Q  0.6645  20.41$  9.76$  9.17$
  Q  0.6645  20.77$  11.21$  8.78$
  Q  -1.3290  20.26$  10.54$  8.87$
  Q  0.6645  17.58$  5.29$  15.17$
  Q  0.6645  18.63$  4.18$  15.62$
  Q  -1.3290  18.04$  4.78$  15.74$
  Q  0.6645  21.96$  7.86$  10.59$
  Q  0.6645  20.41$  8.08$  10.94$
  Q  -1.3290  21.1$  8.08$  10.45$
  Q  0.6645  15.18$  14.1$  2.43$
  Q  0.6645  14.57$  15.36$  1.96$
  Q  -1.3290  15.17$  14.92$  2.35$
  Q  0.6645  11.92$  10.93$  20.76$
  Q  0.6645  13.35$  10.61$  20.72$
  Q  -1.3290  12.58$  10.56$  21.03$
  Q  0.6645  14.94$  2.24$  7.34$
  Q  0.6645  14.47$  2.9$  8.62$
  Q  -1.3290  14.77$  2.26$  8.15$
  Q  0.6645  12.09$  16.88$  17.43$
  Q  0.6645  12.1$  15.72$  18.38$
  Q  -1.3290  11.82$  16.43$  18.11$
  Q  0.6645  1.98$  6.4$  4.04$
  Q  0.6645  1.69$  5.15$  4.8$
  Q  -1.3290  2.21$  5.73$  4.5$
  Q  0.6645  16.06$  6.9$  15.49$
  Q  0.6645  16.27$  7.05$  13.94$
  Q  -1.3290  16.31$  6.69$  14.7$
  Q  0.6645  3.6$  12.95$  13.37$
  Q  0.6645  4.8$  12.02$  13.4$
  Q  -1.3290  3.98$  12.22$  13.48$
  Q  0.6645  16.69$  21.03$  12.94$
  Q  0.6645  15.34$  20.43$  12.48$
  Q  -1.3290  16.06$  20.89$  12.42$
  Q  0.6645  7.87$  3.42$  4.19$
  Q  0.6645  9.2$  3.84$  3.78$
  Q  -1.3290  8.66$  3.27$  3.94$
  Q  0.6645  17.86$  14.8$  6.92$
  Q  0.6645  16.81$  14.02$  7.88$
  Q  -1.3290  17.27$  14.22$  7.14$
  Q  0.6645  14.59$  16.9$  17.49$
  Q  0.6645  16.18$  16.45$  17.68$
  Q  -1.3290  15.37$  16.69$  17.9$
*
